ITEM: TIMESTEP
25000
ITEM: NUMBER OF ATOMS
7886
ITEM: BOX BOUNDS pp pp pp
-5.0595489604787893e+00 5.0059548960479681e+01
1.5198663807257233e+00 4.3480133619274689e+01
2.1555292999944839e+00 4.2844470700006312e+01
ITEM: ATOMS id type x y z c_cna
1 1 39.4361 38.5912 12.1409 5
2 1 36.7802 36.3966 14.2277 5
3 1 34.8875 37.3756 10.93 5
4 1 27.914 36.1248 10.5764 2
5 1 26.5958 38.1177 10.9322 2
6 1 38.9849 30.182 13.4805 5
7 1 36.8542 30.2233 14.7549 5
8 1 35.7704 33.1745 11.765 1
9 1 33.492 32.8157 13.0269 5
10 1 35.2368 31.1279 12.8197 1
11 1 33.6623 31.9424 10.9513 5
12 1 30.1948 33.9016 12.6301 5
13 1 26.0005 35.9358 11.8756 2
14 1 27.4806 34.121 11.8154 5
15 1 25.8203 34.6276 9.77051 5
16 1 25.5209 32.4521 10.7102 5
17 1 24.5448 36.9803 10.1006 1
18 1 23.8264 33.7276 8.86138 5
19 1 20.6281 36.6758 7.46631 1
20 1 22.3057 35.7171 9.31001 1
21 1 18.8193 36.824 9.09742 1
22 1 18.7517 35.4376 6.9854 1
23 1 15.0599 36.4029 6.83265 1
24 1 20.1656 34.8563 8.76656 1
25 1 13.0413 35.2161 6.25958 5
26 1 36.9272 28.8333 12.5448 1
27 1 30.4061 30.3047 10.4917 5
28 1 25.426 31.8527 8.39132 5
29 1 21.5744 32.5156 8.34616 1
30 1 18.3164 31.9678 5.51753 1
31 1 16.0544 32.1127 7.23676 1
32 1 37.9574 40.2088 11.483 5
33 1 35.039 39.0296 15.3173 5
34 1 37.919 41.6444 13.2354 5
35 1 34.2843 40.943 10.0985 5
36 1 29.4462 40.3092 8.38207 5
37 1 25.0911 37.9962 6.52434 5
38 1 36.9584 39.4819 13.538 5
39 1 39.6472 34.3972 10.6361 5
40 1 36.8999 40.3656 15.7162 5
41 1 38.4669 36.7366 10.5738 5
42 1 38.2412 38.7945 9.20845 5
43 1 36.9048 37.926 11.9059 5
44 1 35.3047 39.7841 11.8413 5
45 1 34.3398 36.1222 8.09019 5
46 1 33.1285 38.2452 8.66198 5
47 1 32.8164 37.0882 12.5404 5
48 1 31.181 38.1356 10.5202 5
49 1 30.1254 36.3838 8.99123 5
50 1 27.8539 42.2717 8.87666 5
51 1 26.7239 36.6763 8.86876 5
52 1 28.7353 38.2321 9.40756 2
53 1 28.077 34.923 8.20602 1
54 1 23.745 39.9596 7.14479 1
55 1 22.8488 36.711 5.87474 1
56 1 20.4875 35.6743 5.35781 1
57 1 21.4943 39.0319 6.63459 5
58 1 17.4889 37.5833 7.50519 1
59 1 15.9621 38.5524 5.47167 1
60 1 11.0121 41.8462 6.03991 5
61 1 10.4941 39.2478 7.12082 1
62 1 38.2439 28.1339 14.3967 5
63 1 37.8199 32.9753 10.2737 5
64 1 37.481 31.0163 11.5885 5
65 1 36.1183 34.3498 8.42865 5
66 1 35.7949 32.0429 9.72724 5
67 1 34.2155 33.9835 10.0331 5
68 1 33.5789 32.3231 8.1016 5
69 1 31.7694 34.5013 8.93219 5
70 1 31.1178 32.4448 9.97187 5
71 1 33.0953 36.251 10.3639 5
72 1 29.8318 33.4634 8.29643 5
73 1 29.3879 34.414 10.3865 5
74 1 32.266 34.0126 11.4391 5
75 1 24.2661 35.9389 7.7738 5
76 1 27.5314 32.8864 9.07315 5
77 1 25.7412 34.1366 7.38957 1
78 1 22.0969 34.7342 7.13645 1
79 1 16.7949 35.4222 8.58134 1
80 1 18.5515 34.2529 4.25618 1
81 1 19.1927 37.984 5.56221 1
82 1 16.464 32.9369 4.00258 1
83 1 14.0546 38.7304 7.24466 5
84 1 17.3856 36.478 5.18432 1
85 1 12.2047 39.3028 5.49088 5
86 1 40.1418 32.0967 14.3425 5
87 1 39.222 29.1657 11.3454 1
88 1 35.4783 30.2932 8.01656 5
89 1 32.7595 30.4058 9.30923 5
90 1 31.2398 31.1364 7.57937 5
91 1 33.0618 29.0737 7.12071 5
92 1 31.6279 30.1377 5.52545 5
93 1 31.0197 28.8832 8.54531 5
94 1 28.9707 30.6872 8.72139 5
95 1 28.9774 30.0662 6.30595 5
96 1 27.3416 31.7357 6.87101 5
97 1 26.6689 29.4392 8.07912 5
98 1 29.0811 32.1707 11.0978 5
99 1 27.5662 31.1486 4.54807 5
100 1 26.0595 32.9482 5.29995 5
101 1 25.0205 30.8252 6.10143 5
102 1 23.6943 32.7457 6.64875 1
103 1 21.5101 31.6695 5.66892 1
104 1 19.9008 32.366 3.93237 1
105 1 17.7397 31.0979 3.31825 1
106 1 16.6741 34.2613 6.0039 1
107 1 14.4372 33.1137 5.46825 5
108 1 34.5051 28.4625 9.19391 5
109 1 30.7469 28.1528 6.22848 5
110 1 26.8494 29.139 5.72929 5
111 1 24.4723 27.6895 5.05924 5
112 1 23.0873 29.8241 5.15531 1
113 1 21.0776 29.326 6.82456 1
114 1 20.8411 28.1885 4.294 5
115 1 19.5269 30.0972 5.18663 1
116 1 15.9473 30.8651 5.19421 1
117 1 41.825 43.1548 12.7482 5
118 1 37.2205 42.802 7.72957 5
119 1 30.905 2.76753 6.37979 5
120 1 26.6121 43.3329 6.97248 5
121 1 42.7601 1.93351 9.21276 5
122 1 40.0813 41.7676 12.1416 5
123 1 39.1695 42.8718 6.30054 5
124 1 40.8351 42.2692 8.73746 5
125 1 38.8872 2.58529 8.78562 5
126 1 36.6204 40.8787 9.40729 5
127 1 36.0741 42.0765 11.5239 5
128 1 34.9182 40.4619 7.36317 5
129 1 30.1862 42.1791 10.1544 5
130 1 30.9546 41.0787 6.54722 5
131 1 29.344 42.748 7.07872 5
132 1 29.2622 39.3145 6.07345 5
133 1 28.6518 1.81307 5.05868 5
134 1 27.2024 38.9547 7.72229 5
135 1 25.5633 41.3189 8.32129 5
136 1 26.9219 42.1432 4.23389 5
137 1 25.0578 2.6357 5.16535 5
138 1 24.4935 42.5295 6.12257 5
139 1 22.922 43.3063 4.43631 1
140 1 17.2353 43.3403 3.51693 1
141 1 15.0085 42.8755 5.10679 1
142 1 14.8306 41.7403 2.89932 1
143 1 36.9827 41.2862 5.78176 5
144 1 38.5316 36.8848 7.0464 5
145 1 36.8097 39.1156 7.16235 5
146 1 36.8819 36.9642 8.66419 5
147 1 35.3584 38.9486 9.16781 5
148 1 34.8169 37.8775 6.38798 5
149 1 32.6792 38.9295 6.13964 5
150 1 32.087 36.4827 7.42482 5
151 1 30.7874 38.6273 7.912 5
152 1 30.6438 37.3481 5.66586 5
153 1 27.8471 41.2567 6.27236 5
154 1 28.6141 37.0862 6.93192 1
155 1 25.4812 40.3957 5.72636 5
156 1 27.015 38.3201 5.44392 5
157 1 24.5776 41.1635 3.73904 5
158 1 23.4801 38.7585 5.1596 5
159 1 22.4128 41.1311 5.1958 5
160 1 21.9929 39.8385 2.92488 5
161 1 20.5324 42.2137 3.57025 1
162 1 20.146 40.0604 4.79002 5
163 1 16.5188 40.9072 4.49846 1
164 1 18.408 41.0328 2.92935 1
165 1 12.9071 40.3658 42.4248 5
166 1 14.3636 39.6573 4.00187 1
167 1 10.2956 39.2308 41.9 5
168 1 37.8278 32.2885 7.92425 5
169 1 39.5978 32.0316 6.55467 5
170 1 36.3312 35.9393 6.50503 5
171 1 36.1155 32.5608 6.37597 5
172 1 34.4515 34.4873 6.62646 5
173 1 34.7605 33.1641 4.5357 5
174 1 33.0324 36.3664 5.24459 5
175 1 32.1036 33.8558 6.63231 5
176 1 30.1889 35.1331 6.69751 5
177 1 30.6602 34.3339 4.56218 5
178 1 28.6126 36.0165 4.58087 5
179 1 27.7928 34.0775 6.27007 5
180 1 26.5605 36.0951 6.44857 5
181 1 26.5749 34.8532 3.73542 5
182 1 25.0063 36.5583 4.3988 5
183 1 24.2078 34.6413 5.59355 5
184 1 21.223 37.8388 4.32529 1
185 1 22.6691 35.708 3.54042 5
186 1 19.7233 38.9496 2.28592 1
187 1 18.9084 36.8738 3.3579 1
188 1 17.6381 38.9187 3.63781 1
189 1 17.1862 37.5062 42.4031 5
190 1 15.9949 39.8269 2.29455 5
191 1 13.6242 37.3401 5.18151 1
192 1 37.6169 30.2769 9.25282 5
193 1 39.7589 30.1026 5.20972 5
194 1 37.9764 32.2883 4.77675 5
195 1 37.5835 30.4011 6.34042 5
196 1 33.7171 31.3992 6.12529 5
197 1 35.9703 31.1446 4.68821 5
198 1 31.8275 32.2954 3.97629 5
199 1 33.9767 29.835 3.86403 5
200 1 29.88 32.3982 6.01737 5
201 1 31.8017 30.483 2.4937 5
202 1 30.3142 32.4609 2.57382 5
203 1 29.7617 30.374 4.04307 5
204 1 28.1816 33.2046 3.81657 5
205 1 25.9042 32.2429 2.72529 5
206 1 24.4733 33.9734 3.29508 5
207 1 23.5836 31.8627 4.3188 5
208 1 22.0395 33.5516 4.72603 5
209 1 21.8575 32.4225 2.16351 5
210 1 20.4069 34.768 3.07581 1
211 1 18.1033 33.2446 42.6321 1
212 1 16.9247 35.2853 3.07739 1
213 1 16.8018 34.5962 41.2884 5
214 1 14.8252 34.1214 2.39537 1
215 1 15.6973 37.4558 3.43678 5
216 1 36.8733 28.2558 7.71371 5
217 1 37.1318 28.8435 4.38419 5
218 1 35.1331 29.1096 6.00243 1
219 1 33.3023 27.8112 5.09546 5
220 1 30.7899 26.4863 4.48859 5
221 1 31.2477 28.405 3.65485 5
222 1 28.4289 26.317 5.7491 5
223 1 28.7541 28.4069 4.4304 5
224 1 29.2681 27.2982 2.38915 5
225 1 27.1717 29.308 3.00531 5
226 1 26.9358 27.0883 3.90548 2
227 1 24.8607 30.1552 3.62038 5
228 1 25.2002 27.8554 2.2763 5
229 1 23.1296 30.4097 42.5294 5
230 1 22.6664 28.4363 3.07823 5
231 1 21.5669 30.4624 3.54755 1
232 1 20.9121 29.3946 42.1052 5
233 1 19.6133 31.5508 42.3283 1
234 1 17.4755 30.0416 41.5405 1
235 1 19.014 29.3071 2.83678 5
236 1 17.4366 28.4249 39.5012 5
237 1 15.9583 31.9001 42.0657 1
238 1 34.5753 25.6024 4.98934 5
239 1 31.9596 24.2378 3.92139 5
240 1 30.6973 25.4437 42.6356 1
241 1 28.4723 25.4063 3.61973 1
242 1 29.9315 23.3498 2.93777 5
243 1 28.6383 24.3379 41.9115 5
244 1 27.184 26.1039 42.3314 5
245 1 26.4457 24.0115 40.9772 5
246 1 22.9693 26.4183 42.3647 5
247 1 20.7054 26.5976 2.7396 5
248 1 19.1291 27.8716 41.4319 5
249 1 36.4768 8.99099 8.65723 5
250 1 37.5403 3.73958 4.1617 5
251 1 33.6462 4.43531 4.32031 5
252 1 27.9504 5.89972 4.76215 5
253 1 37.7826 5.08522 6.00351 5
254 1 41.2718 42.8836 5.13125 5
255 1 39.7001 2.81659 5.51733 5
256 1 34.9522 42.5127 8.72186 5
257 1 35.5487 3.81413 5.65555 2
258 1 35.5352 2.21591 3.9432 2
259 1 36.0786 4.31231 2.70417 5
260 1 33.2968 2.4392 5.51846 5
261 1 31.639 4.81617 5.69835 5
262 1 31.7885 2.90561 3.57579 5
263 1 29.9704 6.17146 3.59165 5
264 1 29.7146 3.65355 4.43623 5
265 1 27.3584 3.69807 5.61244 5
266 1 28.189 4.51622 2.82315 5
267 1 26.7162 6.60649 2.93428 5
268 1 25.6003 4.63988 4.15603 1
269 1 24.5789 5.97428 42.7402 5
270 1 17.8567 3.34532 2.26415 1
271 1 37.4937 2.93747 6.60991 5
272 1 40.0443 40.0076 42.7697 5
273 1 37.6516 43.0193 4.4888 5
274 1 35.4404 43.0823 6.13263 5
275 1 33.1016 42.9305 7.56248 5
276 1 35.4781 41.9189 4.09621 5
277 1 33.0674 42.95 3.37302 5
278 1 33.5439 41.3305 5.4081 5
279 1 30.8144 42.8522 4.75629 5
280 1 31.2591 41.7143 2.5078 5
281 1 29.2686 1.62176 2.74793 5
282 1 29.3107 41.1021 4.36738 5
283 1 26.9289 2.51573 3.6345 5
284 1 27.2094 43.0799 42.7642 5
285 1 25.6937 3.29266 42.5359 5
286 1 24.9693 43.3965 3.0747 5
287 1 23.6403 3.50924 3.31413 1
288 1 23.5961 2.40952 41.7181 5
289 1 22.3518 4.49642 41.9136 5
290 1 21.2943 2.53492 2.37997 5
291 1 15.5652 1.86976 42.4211 1
292 1 19.8062 3.78027 41.7391 5
293 1 13.4356 42.6933 41.8013 1
294 1 38.9625 39.4009 5.58565 1
295 1 39.2437 38.1387 3.40539 5
296 1 37.4022 40.1079 3.73527 5
297 1 36.9616 37.7926 4.81305 5
298 1 34.9767 39.6083 4.90024 5
299 1 35.2543 38.0505 3.0601 5
300 1 33.3095 40.4201 2.81992 5
301 1 32.5974 38.4398 3.81335 5
302 1 31.3205 40.1455 4.56965 5
303 1 31.2065 39.1911 42.5599 5
304 1 28.9747 40.7826 42.5915 5
305 1 28.9417 38.4488 3.83342 5
306 1 27.1565 39.915 3.69438 5
307 1 27.1886 39.2784 41.9434 5
308 1 25.686 41.2088 42.3115 5
309 1 25.2541 38.889 3.4152 5
310 1 22.6556 42.5159 2.20297 5
311 1 23.3622 40.5157 41.6082 5
312 1 21.2085 43.2019 40.8833 5
313 1 20.8063 40.9746 42.1041 5
314 1 19.1502 43.1835 42.5597 5
315 1 18.8066 41.9654 40.4595 5
316 1 17.8358 2.08975 40.8276 5
317 1 16.9204 41.899 41.7775 1
318 1 9.18047 41.4444 42.7255 5
319 1 14.8511 40.6947 41.1446 1
320 1 38.8654 35.832 4.68523 5
321 1 38.8609 33.8058 3.13923 5
322 1 37.3782 36.464 2.9039 5
323 1 36.8699 34.2649 3.92088 5
324 1 35.1293 35.7483 4.41034 5
325 1 34.922 34.1375 42.4617 5
326 1 33.0931 36.278 2.49463 5
327 1 33.0355 34.1861 3.4148 5
328 1 30.6623 37.0928 3.10153 5
329 1 31.0771 34.7267 42.9302 5
330 1 29.0767 37.7053 42.2524 5
331 1 28.6636 35.3787 2.31751 5
332 1 27.045 37.2603 2.69919 5
333 1 26.4637 36.8884 41.1143 5
334 1 24.7371 38.6575 41.7399 5
335 1 24.7312 36.4074 42.7836 5
336 1 23.0594 37.856 2.83918 5
337 1 22.7457 36.9904 40.9759 5
338 1 21.3836 38.7632 41.3428 5
339 1 21.0441 36.7828 42.5425 1
340 1 18.3328 39.8498 41.392 5
341 1 19.3173 37.6301 41.1253 5
342 1 16.2026 38.4604 40.3874 5
343 1 15.2381 36.1406 42.0226 5
344 1 14.3191 38.2811 42.384 5
345 1 14.1548 37.4446 39.9595 5
346 1 40.4544 31.8146 3.80325 5
347 1 36.9468 32.0584 2.20326 5
348 1 38.3768 30.3564 3.09677 5
349 1 34.4409 31.7777 2.52599 5
350 1 37.4156 30.4011 41.413 5
351 1 32.4772 32.668 42.227 5
352 1 34.372 30.7822 40.9646 5
353 1 30.2334 31.442 41.2542 5
354 1 29.436 29.5458 42.6707 5
355 1 28.6859 33.366 41.7602 5
356 1 27.9247 31.4576 42.7097 2
357 1 26.3762 34.5425 41.998 5
358 1 26.2191 32.4244 40.9485 2
359 1 24.4306 35.2611 40.4203 5
360 1 24.0013 32.9827 41.5624 5
361 1 22.1619 34.6683 42.1338 5
362 1 22.4222 33.8803 39.7412 5
363 1 20.4822 35.6163 40.0243 5
364 1 19.8918 33.7148 41.1728 5
365 1 18.6738 35.6165 42.1104 5
366 1 18.4318 34.4784 39.2986 5
367 1 17.278 36.4222 40.0649 5
368 1 11.8011 35.9019 39.4324 5
369 1 12.114 37.0774 41.5136 5
370 1 12.934 33.7068 38.8444 5
371 1 39.1026 28.7596 42.3864 5
372 1 37.0116 27.6643 42.609 5
373 1 35.1725 27.6627 3.49445 1
374 1 35.8563 29.8635 2.46563 5
375 1 32.137 29.6272 40.7747 5
376 1 33.1913 26.3193 3.21863 5
377 1 33.8092 28.7388 42.5301 5
378 1 29.9181 28.8534 39.9823 5
379 1 27.8065 30.4276 40.6894 5
380 1 27.397 28.2907 41.7495 5
381 1 25.5775 30.0999 41.9996 5
382 1 25.6633 28.9653 39.9581 5
383 1 24.0818 30.7641 40.1707 5
384 1 23.6669 28.5139 41.2892 2
385 1 21.5053 31.5374 40.6557 5
386 1 22.0042 29.3327 39.7432 2
387 1 20.0601 32.7555 39.1306 5
388 1 19.5412 30.1099 40.125 5
389 1 17.8487 32.2824 40.4904 1
390 1 18.1562 31.2328 38.4275 5
391 1 16.679 33.016 38.7364 5
392 1 15.804 30.8831 40.0402 5
393 1 36.5296 26.3144 40.3791 5
394 1 36.1889 23.7091 4.68563 5
395 1 34.922 26.2524 41.9375 1
396 1 34.2437 24.2139 2.83822 5
397 1 33.4149 27.3923 40.558 5
398 1 32.8081 25.2758 41.4925 5
399 1 31.5139 27.622 41.9859 5
400 1 31.2802 26.1656 39.493 5
401 1 27.0663 26.4395 39.7098 5
402 1 29.3012 26.4205 40.8605 5
403 1 25.0973 26.4519 41.2378 5
404 1 24.9668 25.1676 39.1621 5
405 1 23.465 27.287 39.3231 1
406 1 22.703 25.1632 40.1505 5
407 1 21.4917 27.2617 40.9035 5
408 1 21.2724 26.0067 38.4154 5
409 1 19.9145 28.0895 38.7767 5
410 1 16.0861 29.8072 37.9366 5
411 1 16.5561 32.8719 36.3013 5
412 1 36.2417 23.0726 39.5654 1
413 1 33.9384 23.0778 40.8882 5
414 1 33.0608 19.7815 37.3025 5
415 1 32.6384 23.7648 38.8811 5
416 1 30.7006 24.0982 40.4991 5
417 1 29.9923 22.0786 39.2071 2
418 1 28.6106 24.3565 39.4652 5
419 1 26.2318 23.0993 38.8765 5
420 1 22.3047 23.839 38.0552 5
421 1 36.7253 10.0761 42.3632 5
422 1 35.0497 11.3385 5.10725 5
423 1 37.0236 11.4925 3.53485 5
424 1 42.0159 7.24064 42.7395 5
425 1 38.7958 9.40046 3.79336 5
426 1 39.8775 7.38346 3.89403 5
427 1 34.6178 9.91001 3.22787 5
428 1 36.3577 7.84722 3.22982 5
429 1 35.0512 8.09806 41.4643 5
430 1 34.3936 6.44384 2.50015 5
431 1 33.1327 8.25801 2.51834 5
432 1 32.9593 6.76337 41.1467 5
433 1 32.7675 12.5902 41.728 5
434 1 30.9394 7.9384 2.20645 5
435 1 28.0597 11.3411 42.5901 5
436 1 31.9984 9.01726 41.0617 5
437 1 27.9397 10.2967 40.6314 5
438 1 27.7508 8.70891 42.428 5
439 1 25.5743 9.165 39.5029 2
440 1 39.7699 4.73257 3.74269 5
441 1 40.3928 3.50836 42.4528 5
442 1 40.0302 5.92272 42.2817 5
443 1 37.4024 1.94008 2.40455 5
444 1 38.0578 6.12047 2.77303 5
445 1 35.7694 3.14877 40.6028 5
446 1 34.2825 4.93607 40.9638 5
447 1 33.919 3.34514 42.8035 5
448 1 32.148 5.31494 2.32622 5
449 1 31.8077 4.66112 40.249 5
450 1 29.8492 8.36087 40.6529 5
451 1 30.2816 4.02501 42.4981 5
452 1 29.3515 6.20763 41.845 5
453 1 28.5836 5.13152 39.7216 5
454 1 27.7304 7.40465 40.2823 5
455 1 26.8036 5.14495 41.6198 5
456 1 25.4998 7.90328 41.6992 5
457 1 25.3635 6.37341 39.6048 5
458 1 23.4346 7.66973 38.5835 5
459 1 23.1843 6.77036 40.9837 5
460 1 21.5616 6.3896 37.9349 5
461 1 40.0876 43.6814 3.06756 5
462 1 40.8015 42.0495 41.3944 5
463 1 39.2995 1.94138 41.2217 5
464 1 38.2541 41.5951 42.7142 5
465 1 35.2687 43.0858 42.4337 5
466 1 38.6272 40.4147 40.8271 5
467 1 33.1997 42.4717 41.6952 5
468 1 33.4366 40.2502 40.9036 5
469 1 31.5464 2.32681 41.6759 5
470 1 31.1161 41.1552 40.948 5
471 1 29.8183 3.09177 39.8054 5
472 1 29.347 42.8908 41.2679 5
473 1 28.0515 3.02379 41.3328 5
474 1 27.8821 43.4665 39.3501 5
475 1 26.6012 3.41923 39.6742 5
476 1 25.5817 43.3668 41.0154 5
477 1 24.5606 4.15569 40.7565 5
478 1 24.2943 2.73511 38.9452 5
479 1 23.2919 5.17523 39.2093 5
480 1 22.014 3.573 39.9897 5
481 1 20.7365 5.80514 40.3461 5
482 1 20.4862 4.53165 38.5421 5
483 1 18.6437 5.18049 36.7256 5
484 1 16.9327 5.01676 38.3306 1
485 1 15.6197 6.22074 36.4914 5
486 1 39.7735 37.9988 41.1342 5
487 1 37.6483 38.7055 39.5596 5
488 1 37.0757 38.5423 42.307 5
489 1 36.1247 40.7453 42.1477 5
490 1 35.1674 38.5881 40.6658 5
491 1 36.0874 40.5394 39.8313 5
492 1 33.2105 38.2982 42.1521 5
493 1 31.5776 38.7791 40.1947 5
494 1 33.5959 38.9957 38.8322 5
495 1 29.3965 41.5206 39.1091 5
496 1 29.247 39.5361 40.4564 5
497 1 27.6495 41.4027 40.7151 5
498 1 27.0934 40.9641 38.3623 5
499 1 25.2484 42.6322 38.6072 5
500 1 25.3175 40.744 40.1554 5
501 1 23.4633 42.7849 40.1813 5
502 1 23.1819 41.3409 37.7461 5
503 1 22.1737 1.83211 38.3234 5
504 1 21.3112 40.8264 39.8853 5
505 1 19.9934 2.17795 39.4151 5
506 1 20.0447 42.2196 38.021 5
507 1 17.4363 42.8194 38.3922 5
508 1 16.7041 40.712 39.5909 2
509 1 15.3028 42.8224 40.1454 5
510 1 15.3467 41.5445 37.7231 2
511 1 8.413 2.72859 39.4985 5
512 1 13.7612 1.5871 38.2274 5
513 1 37.5504 36.5651 40.9597 5
514 1 37.4258 34.3633 41.9862 5
515 1 35.4181 36.567 41.8335 5
516 1 35.0257 35.2023 39.6826 5
517 1 33.4424 37.0011 39.9779 5
518 1 33.1118 34.6186 41.0836 5
519 1 31.3078 36.6584 41.6644 5
520 1 31.3974 35.8355 39.7293 5
521 1 29.4922 37.2312 39.4601 5
522 1 28.8393 35.3913 40.7511 5
523 1 26.7312 38.9524 39.5903 5
524 1 27.1389 36.4993 38.96 5
525 1 25.1559 39.9355 37.8196 5
526 1 24.9385 37.4182 39.4046 5
527 1 23.335 39.333 39.238 5
528 1 22.9874 38.4878 36.9969 5
529 1 20.9452 40.178 37.6115 5
530 1 20.8871 38.1653 38.6057 5
531 1 19.0843 39.8952 38.9659 5
532 1 19.1721 38.9885 36.7347 1
533 1 17.413 40.6273 37.1454 5
534 1 17.2258 38.4162 38.2034 5
535 1 14.5939 39.5342 38.9874 2
536 1 14.8572 37.4553 37.5431 5
537 1 13.4066 40.5081 37.1126 2
538 1 38.6888 32.6192 40.4148 5
539 1 39.5225 30.4741 40.386 5
540 1 35.2231 32.8824 40.1678 5
541 1 37.1679 31.006 39.129 5
542 1 33.0138 34.211 38.5491 5
543 1 32.5546 31.8647 39.5148 5
544 1 31.0723 33.3858 40.2097 5
545 1 30.8562 32.9482 37.6829 5
546 1 29.2509 34.6142 38.7148 5
547 1 28.3507 32.236 39.4475 5
548 1 27.0362 34.207 39.7852 5
549 1 26.4113 33.2161 37.6674 5
550 1 24.8923 35.3879 38.0915 5
551 1 24.5159 33.0407 39.3329 2
552 1 22.2483 36.1406 38.5871 5
553 1 23.204 33.8612 37.337 5
554 1 20.7868 37.1373 36.523 5
555 1 20.1464 34.9295 37.5304 5
556 1 18.8985 36.7759 37.994 5
557 1 18.8271 35.5691 35.9174 5
558 1 17.2482 37.5822 35.8528 5
559 1 16.9784 35.1648 37.4632 5
560 1 15.0969 35.3509 39.0807 5
561 1 14.7002 36.1856 35.2715 5
562 1 12.7853 38.1425 38.1702 5
563 1 37.0623 28.3499 39.0949 5
564 1 35.7094 28.7816 41.1521 5
565 1 34.2634 29.2272 39.1741 5
566 1 35.2813 27.0907 38.452 5
567 1 31.5182 28.7816 35.9498 5
568 1 31.9931 28.1966 38.5882 5
569 1 30.7447 30.5855 38.963 5
570 1 29.7052 28.4538 37.4071 2
571 1 28.3288 30.2892 37.8255 5
572 1 27.8584 28.5201 39.141 5
573 1 26.1111 31.2045 38.7972 2
574 1 26.0936 29.248 37.1111 5
575 1 24.2615 31.8182 37.183 5
576 1 23.9559 29.3911 38.1589 5
577 1 22.336 31.686 38.6358 2
578 1 22.3707 30.488 36.3442 5
579 1 21.4025 32.6238 36.5146 5
580 1 20.547 30.2305 37.8975 2
581 1 18.8013 33.3013 37.1773 5
582 1 19.1414 31.3009 35.87 5
583 1 16.8008 35.022 34.8277 5
584 1 14.4741 33.1889 34.4386 5
585 1 14.8011 34.219 36.695 5
586 1 12.7943 34.2509 32.3643 5
587 1 38.7663 27.454 40.7905 5
588 1 36.7857 25.1131 38.3594 1
589 1 34.3611 25.2377 39.6663 5
590 1 35.3678 26.1162 36.3091 5
591 1 31.0258 26.7019 36.8025 2
592 1 33.0731 26.1847 37.8565 5
593 1 29.1913 26.4148 38.5513 5
594 1 29.0379 25.3103 36.0633 1
595 1 27.5668 27.1566 36.6293 5
596 1 26.7895 25.1446 37.6486 1
597 1 25.3925 27.0661 38.1069 5
598 1 25.535 26.5626 35.7677 1
599 1 23.9357 28.5756 36.0004 5
600 1 23.3385 26.2894 37.2253 5
601 1 21.8136 28.373 37.4432 1
602 1 21.8948 27.2957 35.3445 5
603 1 20.606 29.6735 35.3176 1
604 1 19.8763 27.0085 36.4996 1
605 1 18.4264 29.3162 36.9658 5
606 1 18.5985 28.3081 34.7801 5
607 1 16.9232 30.4457 35.5632 5
608 1 12.8213 31.7979 34.0913 5
609 1 34.7493 23.605 37.5948 5
610 1 33.9517 21.8589 36.0744 5
611 1 32.5535 24.2912 36.4255 5
612 1 31.717 21.8496 37.3182 2
613 1 30.5712 24.0259 37.6993 2
614 1 30.2135 22.9774 35.5586 1
615 1 26.7808 24.1709 35.1929 1
616 1 28.3486 23.0582 37.3645 1
617 1 24.4996 24.1636 37.1033 5
618 1 24.642 22.8329 34.6338 1
619 1 23.4433 24.8862 34.9026 1
620 1 21.0569 24.9965 35.9581 5
621 1 20.0037 25.9709 34.1582 5
622 1 35.6434 20.0815 35.3308 5
623 1 32.8569 18.6924 34.9816 5
624 1 31.6225 20.6757 35.3042 1
625 1 29.5464 20.9835 37.0161 1
626 1 28.1225 21.7704 35.2232 1
627 1 32.9856 13.6228 38.5649 5
628 1 38.7914 10.0152 40.7812 5
629 1 39.2572 12.284 39.8442 5
630 1 37.8999 10.474 38.4387 5
631 1 37.08 12.6573 39.192 5
632 1 35.7399 10.5566 40.1033 5
633 1 34.9351 12.714 40.6058 5
634 1 34.5359 11.583 38.2431 5
635 1 31.6389 14.4477 36.6798 5
636 1 32.6413 11.15 39.7416 5
637 1 30.9588 12.2698 37.9962 1
638 1 27.5613 13.2367 37.6964 1
639 1 40.8654 9.19314 2.22593 5
640 1 40.5774 7.81536 40.7193 5
641 1 39.2088 8.08821 38.4978 5
642 1 38.2414 8.27012 42.1742 5
643 1 37.0009 8.48361 39.896 5
644 1 37.3089 6.75497 37.6845 5
645 1 36.1272 9.20647 37.8352 5
646 1 34.9127 6.78528 39.1467 5
647 1 33.6962 8.74606 39.5398 5
648 1 33.627 8.23732 37.2774 5
649 1 32.1095 10.0017 37.7034 5
650 1 31.5934 8.12323 38.7722 5
651 1 30.4997 10.1294 39.2434 5
652 1 30.1899 8.93646 36.9597 5
653 1 28.828 11.3426 37.428 1
654 1 27.97 9.03014 38.4505 5
655 1 26.6385 11.1078 38.416 1
656 1 26.7248 9.95531 36.3787 5
657 1 24.4751 10.0568 37.7169 5
658 1 42.0792 5.93127 40.6397 5
659 1 38.4345 6.53519 40.2557 5
660 1 37.9902 4.19046 42.1861 5
661 1 36.2615 6.22376 41.6814 5
662 1 37.1136 4.96664 39.6445 5
663 1 34.2833 4.02134 38.7488 5
664 1 33.4332 2.49839 40.2253 5
665 1 32.7118 6.07395 38.5927 5
666 1 32.1044 3.16217 38.2156 5
667 1 31.1713 6.92972 36.8705 5
668 1 30.2586 4.95293 38.1569 5
669 1 29.1299 7.03296 38.4338 5
670 1 29.328 5.70562 36.0998 5
671 1 28.1356 7.93151 36.4198 5
672 1 27.1669 5.67637 37.7903 5
673 1 25.7702 7.87775 37.3452 5
674 1 25.9514 6.24802 35.7958 1
675 1 24.5156 8.4043 35.5011 5
676 1 23.7924 6.21988 36.6719 5
677 1 22.3771 8.95217 36.6199 5
678 1 22.1691 7.23161 35.1079 5
679 1 19.9127 7.37512 35.8609 5
680 1 38.0165 2.75555 39.3558 5
681 1 39.0883 42.3357 39.5641 5
682 1 36.98 42.6731 40.7738 5
683 1 36.9389 41.9892 38.0752 5
684 1 35.8003 2.11662 38.2095 5
685 1 34.9011 42.6983 40.0278 5
686 1 31.487 43.2103 39.6009 5
687 1 33.4765 43.3273 37.8925 5
688 1 28.6094 2.36825 35.017 5
689 1 30.071 1.77033 37.5766 5
690 1 28.2202 3.37228 37.6192 5
691 1 26.7871 42.4624 34.6029 5
692 1 27.2385 4.31949 35.3908 5
693 1 26.657 1.82106 36.4975 5
694 1 25.3205 3.92573 37.0447 5
695 1 25.5776 2.56031 34.6016 5
696 1 24.2701 4.46098 34.9247 5
697 1 22.5007 4.02324 37.2048 5
698 1 20.9962 5.11571 35.8084 5
699 1 22.2163 2.94303 35.1131 5
700 1 17.489 6.20035 34.6999 5
701 1 18.3422 4.42438 40.0315 1
702 1 16.8576 3.85895 36.1965 5
703 1 41.0725 40.5759 37.9348 5
704 1 39.6128 37.7323 38.6319 5
705 1 38.8942 40.3494 38.2163 5
706 1 37.9228 37.5508 36.9264 5
707 1 34.49 41.0987 38.142 5
708 1 35.4 37.7601 38.6616 5
709 1 32.0364 40.9015 38.9467 5
710 1 32.3436 39.7597 36.6311 5
711 1 31.002 41.8265 37.0844 5
712 1 30.1998 39.1218 38.2258 5
713 1 28.4034 42.2861 36.6433 5
714 1 29.4117 39.9805 35.9916 5
715 1 24.8296 40.9085 33.8159 5
716 1 25.0628 41.754 36.2512 5
717 1 23.934 2.05461 36.6084 5
718 1 23.1204 39.4588 32.8849 5
719 1 23.5154 42.9243 34.2142 5
720 1 21.713 42.3734 36.0911 5
721 1 20.5592 2.61499 36.7394 5
722 1 20.0328 1.81289 34.6453 5
723 1 18.6712 3.13421 37.6028 5
724 1 18.1128 43.2644 36.0711 5
725 1 15.8989 1.76571 36.725 5
726 1 16.0636 41.7965 35.3974 2
727 1 13.855 42.7863 36.0119 2
728 1 11.7122 42.4302 37.8632 5
729 1 11.6595 41.4417 35.493 5
730 1 38.963 35.4187 37.1717 5
731 1 39.0892 34.9054 39.5783 5
732 1 37.0458 36.2453 38.5589 5
733 1 37.2442 34.1565 36.2356 5
734 1 36.0039 36.4574 36.0827 5
735 1 33.8677 36.1418 37.6668 5
736 1 32.0947 37.7255 37.7826 5
737 1 30.9023 35.6646 37.3296 5
738 1 30.6121 38.0864 35.9922 5
739 1 28.7529 36.8427 37.0941 5
740 1 28.0087 38.8988 37.6277 5
741 1 27.5279 37.9742 35.3552 5
742 1 26.9017 40.3523 35.9664 5
743 1 25.9581 37.5378 37.0966 5
744 1 23.1102 40.4878 35.2259 5
745 1 25.0719 38.9421 35.4346 5
746 1 21.5079 41.6296 33.8893 5
747 1 20.7319 39.2382 34.9633 5
748 1 19.5052 41.4218 35.4919 5
749 1 19.4512 39.9072 33.0686 1
750 1 18.0612 42.1339 33.7099 1
751 1 17.4307 39.6568 34.9325 1
752 1 11.376 39.3062 36.6188 5
753 1 13.7187 39.7808 32.1881 5
754 1 15.4917 39.4693 36.594 2
755 1 13.351 37.9579 33.3429 5
756 1 10.0341 41.8496 34.0229 5
757 1 40.3684 33.7599 36.6404 5
758 1 40.7568 33.3415 38.9188 5
759 1 36.9321 33.8352 39.0155 5
760 1 36.6739 31.7634 36.9196 5
761 1 35.2418 33.8813 37.183 5
762 1 34.6741 31.5831 38.184 5
763 1 33.1345 32.9043 36.3748 5
764 1 30.9237 33.0222 35.3375 5
765 1 29.1726 34.3503 36.2428 5
766 1 28.3566 32.4829 37.1927 5
767 1 27.0473 35.3991 36.8372 5
768 1 27.22 33.2974 35.1775 5
769 1 25.3676 36.6729 34.781 5
770 1 24.9819 34.407 35.7153 5
771 1 23.6 36.3297 36.2148 5
772 1 23.473 35.3947 33.7834 5
773 1 22.4568 37.6392 34.5059 5
774 1 21.6607 35.0469 35.671 5
775 1 19.1986 37.613 34.4967 5
776 1 20.6091 35.9075 33.7246 5
777 1 17.5404 38.9746 32.6563 5
778 1 16.7095 36.8769 33.3282 5
779 1 13.4066 38.4419 35.8397 5
780 1 15.0269 37.8545 31.6801 5
781 1 11.8363 39.4922 34.0915 5
782 1 12.8794 35.7897 37.1812 5
783 1 35.8182 29.4264 37.4803 5
784 1 40.2972 29.8392 35.0452 5
785 1 32.7034 30.5302 37.3777 5
786 1 31.6019 27.609 33.745 1
787 1 30.3656 30.8894 36.5895 5
788 1 30.1398 29.7149 33.8161 5
789 1 28.8583 31.7625 34.5444 5
790 1 28.3212 29.3738 35.4803 5
791 1 26.3435 31.3429 36.1601 5
792 1 26.9043 30.6553 34.0422 5
793 1 25.5101 33.1623 33.4806 5
794 1 24.5077 30.492 35.0104 5
795 1 23.4324 32.9536 34.8357 5
796 1 23.2729 31.5995 32.7788 5
797 1 21.8468 33.8979 33.0773 5
798 1 21.3118 31.8513 34.4039 5
799 1 19.78 33.7525 34.7285 5
800 1 19.9469 32.7556 32.5526 5
801 1 18.5588 34.7144 32.8728 5
802 1 17.6658 32.5288 34.0043 5
803 1 14.598 35.8635 32.8991 5
804 1 16.2681 33.9905 32.8162 5
805 1 11.6194 36.3675 32.7859 5
806 1 37.3075 27.3677 37.0842 5
807 1 35.4882 26.7834 33.9211 5
808 1 33.6566 28.1703 36.9362 2
809 1 33.0269 26.4676 35.4028 2
810 1 29.6817 27.5613 35.2184 1
811 1 33.0377 25.6489 33.1753 1
812 1 28.4939 28.2215 33.1773 5
813 1 27.7468 26.3101 34.2488 1
814 1 26.239 28.4008 34.78 5
815 1 26.031 27.0004 32.6862 1
816 1 24.9298 29.1268 33.0767 5
817 1 23.9554 26.9145 34.0375 5
818 1 22.4925 29.6315 34.0315 5
819 1 22.7071 28.0501 32.2505 5
820 1 21.2304 30.6459 32.1528 5
821 1 20.5294 28.3137 33.3032 5
822 1 19.1021 30.571 33.5512 1
823 1 19.1661 29.2479 31.4225 5
824 1 17.7281 31.2337 31.8291 5
825 1 16.9203 29.1493 32.9261 5
826 1 15.5535 31.0958 33.7215 5
827 1 14.3586 31.237 29.5615 5
828 1 14.4945 32.5548 31.8561 5
829 1 36.7154 24.0241 36.1917 5
830 1 37.7712 21.6677 35.8526 1
831 1 34.6243 24.4254 34.8974 5
832 1 32.7226 23.1834 34.3236 1
833 1 30.769 25.3749 34.6316 1
834 1 31.0619 24.0734 32.5785 5
835 1 29.8129 26.2159 32.7686 1
836 1 28.7177 23.6718 33.8774 1
837 1 25.4624 24.9858 33.5294 1
838 1 27.5035 24.8812 31.9791 1
839 1 23.932 25.9891 31.5453 1
840 1 23.4558 23.5375 32.58 1
841 1 22.0394 25.8617 32.9763 5
842 1 22.0031 24.9428 30.7923 5
843 1 20.5346 26.9463 31.415 5
844 1 18.406 27.1038 32.6737 5
845 1 17.0707 28.0655 30.8946 5
846 1 36.9453 17.7433 35.1067 5
847 1 33.8067 20.778 33.7177 5
848 1 35.2213 18.8927 33.3085 5
849 1 30.5308 22.0414 33.6101 1
850 1 30.2314 20.8237 31.4544 5
851 1 28.6598 22.7615 31.654 5
852 1 26.385 22.8042 33.1675 1
853 1 25.2486 23.854 30.9818 1
854 1 35.6525 15.7049 36.1949 5
855 1 34.5306 16.781 34.5495 5
856 1 35.2116 13.6106 37.0713 5
857 1 40.8438 18.7427 37.5081 5
858 1 37.0255 14.0175 35.7026 5
859 1 36.7356 17.2267 38.4812 5
860 1 33.5499 14.5446 35.2481 1
861 1 32.2854 15.3598 33.4495 5
862 1 38.5287 12.9239 37.3151 5
863 1 38.754 11.4333 35.4649 5
864 1 36.2702 10.5637 34.7494 5
865 1 36.6714 11.5721 36.9232 5
866 1 34.905 11.3061 32.7333 1
867 1 35.0237 12.67 34.9826 1
868 1 33.0581 11.241 34.1755 1
869 1 33.0734 12.2602 36.3141 1
870 1 31.5508 13.1176 34.5037 1
871 1 31.3866 12.1577 32.2534 5
872 1 30.0574 14.3055 32.9455 5
873 1 29.5629 12.2169 33.7583 5
874 1 27.8182 12.9239 32.0051 5
875 1 41.7294 10.8038 35.9647 5
876 1 41.1174 8.45473 37.1845 5
877 1 37.928 8.64347 36.5057 5
878 1 40.0591 9.35741 34.8662 5
879 1 35.3635 8.00536 35.6266 5
880 1 34.7354 5.75945 36.9274 5
881 1 34.3123 10.2828 35.9053 1
882 1 33.2709 6.63903 35.2796 5
883 1 32.7668 10.04 31.9027 1
884 1 32.1893 9.18819 35.4958 5
885 1 30.7851 11.1091 35.7238 1
886 1 31.0312 10.0344 33.4948 1
887 1 29.1913 10.5864 31.8113 5
888 1 28.9081 9.95858 35.0395 5
889 1 27.2427 10.8188 33.4214 5
890 1 27.2208 9.34763 31.1936 1
891 1 25.7521 11.7289 31.5559 1
892 1 25.2339 9.24871 32.9096 5
893 1 21.6217 10.5188 32.1906 5
894 1 41.2741 6.9809 34.845 5
895 1 38.7851 4.59826 37.9133 5
896 1 39.601 6.53936 36.4918 5
897 1 38.6718 4.15575 35.5743 5
898 1 37.113 6.01265 35.4809 5
899 1 36.4782 3.92167 37.3397 5
900 1 32.4163 4.78872 36.532 5
901 1 34.9519 4.71547 34.6471 5
902 1 31.3881 5.55129 34.3673 5
903 1 30.5443 3.75773 35.8802 5
904 1 30.5128 7.52892 34.6074 5
905 1 29.1898 4.18542 33.6944 5
906 1 28.7332 8.50063 33.0871 1
907 1 28.3984 6.31328 34.1293 5
908 1 26.7604 8.27886 34.5156 5
909 1 26.8356 7.10884 32.3433 1
910 1 23.1028 7.52088 32.5906 5
911 1 24.9274 6.77964 33.7848 5
912 1 20.5412 8.15732 32.7148 5
913 1 19.3603 9.20252 31.0718 5
914 1 19.3184 10.498 33.3762 5
915 1 15.8606 7.29839 33.4168 5
916 1 16.953 9.31016 32.5669 5
917 1 40.5417 2.30425 35.8069 5
918 1 41.8723 42.2388 36.4092 5
919 1 38.0083 2.26096 36.9686 5
920 1 37.7938 42.0828 35.8521 5
921 1 36.6689 3.02318 34.8373 5
922 1 35.7225 42.9993 36.1039 5
923 1 33.9527 3.05563 36.2657 5
924 1 34.306 1.85437 34.255 5
925 1 32.8091 3.58929 34.1332 5
926 1 32.0112 1.64111 35.7407 5
927 1 27.3431 2.5595 32.9006 5
928 1 30.9773 2.35019 33.5257 1
929 1 25.9183 3.82513 31.2343 5
930 1 25.1973 43.3113 32.5142 1
931 1 26.2711 4.89379 33.3106 5
932 1 24.0658 2.05438 30.4643 1
933 1 22.4732 5.39435 33.5069 5
934 1 23.7969 3.16175 33.0697 5
935 1 19.6398 6.01877 33.744 5
936 1 19.3876 5.15199 31.1594 5
937 1 17.8481 7.21074 31.9812 5
938 1 18.8415 3.96919 34.7226 5
939 1 15.5996 5.06854 34.2155 5
940 1 17.8414 4.65891 32.8132 5
941 1 13.8149 6.13064 32.6881 5
942 1 14.5001 3.10212 35.0135 5
943 1 12.0042 43.6691 34.4681 5
944 1 38.786 39.5636 35.9686 5
945 1 40.2985 37.8151 36.3704 5
946 1 36.514 39.7169 37.1168 5
947 1 37.0562 38.6938 34.9795 5
948 1 35.9612 40.9098 35.1361 5
949 1 34.2894 38.2636 36.3447 5
950 1 33.4043 41.7026 35.7518 5
951 1 33.8025 39.5232 34.4808 5
952 1 32.249 42.2935 33.4949 2
953 1 31.603 40.3022 34.6707 2
954 1 30.2236 42.4146 34.679 5
955 1 30.3038 40.8225 32.6551 2
956 1 28.9466 42.6379 32.5804 1
957 1 28.258 40.461 33.9969 5
958 1 21.9746 1.86526 32.3567 1
959 1 26.9022 41.4545 32.2715 1
960 1 21.8859 42.7351 30.0473 5
961 1 23.4617 41.5627 31.956 1
962 1 20.4558 3.78586 32.9631 5
963 1 19.988 42.1295 32.1614 1
964 1 20.4369 2.46019 30.6598 5
965 1 16.3684 43.2133 32.0258 5
966 1 16.6731 2.4159 34.3778 5
967 1 15.2623 40.119 30.5744 5
968 1 14.4501 42.9842 33.6528 5
969 1 13.7306 40.8063 34.5849 2
970 1 12.4381 2.67001 36.4801 5
971 1 14.036 42.2137 31.0206 5
972 1 8.93072 2.12503 33.9697 5
973 1 38.2863 36.7977 34.9101 5
974 1 36.2562 35.2045 33.9581 5
975 1 35.054 37.3411 34.1748 5
976 1 33.9523 34.921 35.37 5
977 1 32.7089 36.9089 35.6345 5
978 1 33.9051 35.272 33.1438 5
979 1 32.2212 37.8957 33.5136 5
980 1 29.3886 36.2384 34.7085 5
981 1 29.7486 38.6893 33.8052 2
982 1 30.4899 36.6085 32.1012 5
983 1 28.31 39.1264 31.5487 2
984 1 27.9639 37.1928 32.7088 5
985 1 26.2553 38.9478 33.2804 5
986 1 26.2421 37.9012 31.2689 5
987 1 25.1458 40.079 31.4584 5
988 1 24.2865 37.5048 32.9268 5
989 1 18.394 2.34114 32.7034 5
990 1 21.208 40.3697 31.2851 1
991 1 19.5346 41.3205 29.5896 5
992 1 17.6867 40.8373 31.3835 5
993 1 15.8527 40.8627 33.2459 5
994 1 17.1871 38.0751 30.0442 5
995 1 15.5354 38.8335 28.228 1
996 1 12.2409 41.6241 32.9991 5
997 1 10.8085 2.85638 32.6679 5
998 1 11.9353 39.5204 28.149 5
999 1 11.0292 42.7641 31.0994 5
1000 1 35.5076 32.9771 34.7182 5
1001 1 37.5319 32.9857 33.3158 5
1002 1 34.8599 33.2252 32.189 2
1003 1 32.9569 33.1193 33.7735 2
1004 1 31.4216 35.3955 34.3652 5
1005 1 32.8656 31.8882 31.65 1
1006 1 31.6548 34.0078 31.9248 5
1007 1 29.2878 33.8524 33.6984 5
1008 1 27.2644 35.4581 34.147 5
1009 1 29.36 32.6019 31.0825 1
1010 1 28.4826 34.9425 31.5981 5
1011 1 25.9561 35.5545 32.3185 5
1012 1 24.3603 36.5127 30.4775 5
1013 1 23.0681 37.6293 28.3942 5
1014 1 23.0389 38.5189 30.7061 5
1015 1 22.5206 36.2054 31.783 5
1016 1 21.0961 38.0529 32.4332 5
1017 1 18.7532 35.9813 29.6756 5
1018 1 19.2098 38.9851 30.8332 1
1019 1 18.75 36.897 31.8894 1
1020 1 17.2021 36.9334 27.7251 5
1021 1 15.0639 36.8451 29.3427 1
1022 1 13.0743 36.5323 31.0203 5
1023 1 11.553 38.4051 31.6221 1
1024 1 10.0213 40.1175 32.0877 1
1025 1 11.9695 40.5147 30.7525 5
1026 1 38.5162 29.576 36.8582 5
1027 1 36.5762 31.2738 31.9549 5
1028 1 34.7042 30.8957 33.4374 2
1029 1 34.5184 30.7408 35.7397 2
1030 1 30.7672 31.9911 33.0063 1
1031 1 32.4325 29.7931 32.8317 1
1032 1 30.8394 30.5384 30.9416 5
1033 1 28.5757 30.604 32.3284 5
1034 1 27.6126 32.7813 32.5574 5
1035 1 27.1652 31.2476 30.3416 1
1036 1 26.1163 33.1351 30.7414 5
1037 1 25.4463 31.1058 32.0662 5
1038 1 23.9737 34.1209 31.8749 5
1039 1 24.2723 32.0243 30.0653 5
1040 1 22.6094 35.5651 29.3417 5
1041 1 21.8808 32.5078 30.8071 5
1042 1 20.3569 35.1414 31.2138 5
1043 1 20.3442 34.1276 29.2029 5
1044 1 19.2229 37.2362 26.2275 5
1045 1 18.3373 33.7905 30.8873 5
1046 1 14.6207 34.47 30.7448 1
1047 1 11.2821 33.9197 28.2591 5
1048 1 11.5426 37.3241 28.9849 5
1049 1 10.6583 34.9643 30.2298 5
1050 1 11.4831 33.0172 26.0282 5
1051 1 40.0441 27.6431 36.5907 2
1052 1 35.9355 28.5766 35.4778 5
1053 1 35.9147 28.9128 33.0406 5
1054 1 33.5016 28.5895 34.6354 2
1055 1 32.3225 31.1767 34.9217 5
1056 1 33.6 27.7201 32.2779 1
1057 1 30.5017 28.1235 31.5765 5
1058 1 28.0558 27.0332 31.0591 1
1059 1 26.599 29.0905 31.5172 5
1060 1 26.9644 28.0049 29.0049 1
1061 1 25.2733 29.8593 29.4396 1
1062 1 24.7004 27.8569 30.617 1
1063 1 23.3225 29.9416 31.2022 5
1064 1 23.375 28.7891 28.6182 1
1065 1 22.1785 31.0104 29.0635 5
1066 1 21.1832 28.8382 30.172 5
1067 1 19.8497 31.5616 30.2167 5
1068 1 19.9858 29.774 28.2455 5
1069 1 17.7879 32.7552 28.1442 5
1070 1 17.5303 30.614 29.5911 5
1071 1 16.1614 32.5131 30.2239 5
1072 1 16.0559 31.1988 27.8131 5
1073 1 12.7005 33.3828 30.251 5
1074 1 14.7116 32.142 26.0786 5
1075 1 36.4941 24.8208 33.2027 5
1076 1 34.8462 25.5953 31.7433 5
1077 1 36.0417 22.4333 34.4425 5
1078 1 34.496 23.2257 32.7891 1
1079 1 34.6711 24.3973 29.3351 5
1080 1 31.8812 26.4508 31.2206 5
1081 1 33.104 23.9765 31.0268 5
1082 1 26.2579 25.9443 30.0564 1
1083 1 28.2079 25.9776 28.8589 1
1084 1 24.7135 26.784 28.1593 1
1085 1 24.0369 24.8458 29.4919 1
1086 1 22.6982 26.934 29.9222 1
1087 1 22.6122 25.7377 27.604 1
1088 1 21.0873 27.6487 28.0187 1
1089 1 20.2376 25.7782 29.406 5
1090 1 19.0069 27.6932 29.4329 5
1091 1 16.3902 25.7507 26.2595 5
1092 1 15.5489 29.112 29.1109 5
1093 1 14.0828 29.9392 27.3714 5
1094 1 13.9497 28.7171 22.4027 5
1095 1 34.4564 22.0231 30.2034 5
1096 1 33.8471 19.7769 31.4285 1
1097 1 32.5917 21.6687 31.7532 5
1098 1 32.4986 20.504 29.7933 5
1099 1 31.0404 22.6403 29.9014 5
1100 1 28.854 21.4964 29.5095 5
1101 1 29.7827 24.9453 30.6484 5
1102 1 27.3989 22.4607 27.9535 5
1103 1 27.3612 23.7526 29.9136 5
1104 1 21.9122 23.4706 28.5217 1
1105 1 25.99 24.6274 28.1123 1
1106 1 35.4804 19.5157 29.5486 5
1107 1 33.1461 17.4177 32.6077 5
1108 1 37.7856 14.7423 32.322 1
1109 1 36.5535 16.6491 32.3743 5
1110 1 35.6245 14.6662 33.7457 5
1111 1 34.3982 15.4319 31.8408 5
1112 1 44.3032 11.1758 33.9118 5
1113 1 36.9491 12.5875 33.3991 5
1114 1 38.2391 10.2865 33.0603 5
1115 1 38.8515 12.3824 32.0216 1
1116 1 34.7114 10.1258 30.4583 1
1117 1 35.6246 13.6031 31.6206 1
1118 1 33.4762 13.2394 33.0848 1
1119 1 31.9719 14.2647 31.2687 1
1120 1 33.4185 12.0524 30.7911 1
1121 1 30.6603 14.7752 29.52 1
1122 1 29.8333 12.8299 30.8742 5
1123 1 28.6121 14.9459 30.9115 5
1124 1 43.6763 7.87618 36.7129 5
1125 1 39.6243 8.10744 32.7148 5
1126 1 40.9115 6.28217 32.2988 5
1127 1 40.4826 10.534 31.6684 5
1128 1 37.3639 7.90546 33.9798 5
1129 1 34.2556 9.26358 33.903 5
1130 1 36.0997 9.18466 32.3378 1
1131 1 36.0989 8.01967 30.3065 5
1132 1 30.4047 8.77821 31.2353 1
1133 1 31.3816 10.9167 30.1615 1
1134 1 32.6431 8.92638 29.9787 1
1135 1 29.8264 11.7617 28.4927 1
1136 1 28.6031 7.21558 30.6755 1
1137 1 27.7578 11.5015 29.9347 1
1138 1 25.1279 8.04337 30.7865 5
1139 1 24.2206 12.3649 29.6315 5
1140 1 23.7832 10.1254 31.0078 5
1141 1 22.1182 10.8685 29.4333 5
1142 1 42.4979 8.83533 34.9541 5
1143 1 41.4736 3.99356 34.3772 5
1144 1 39.0114 6.14449 33.8418 5
1145 1 39.5916 3.94048 32.907 5
1146 1 37.6059 6.80247 31.8324 5
1147 1 37.1253 5.05358 33.3285 5
1148 1 35.3976 6.88655 33.5675 5
1149 1 35.4429 5.79956 31.1182 5
1150 1 32.1757 8.06179 33.1647 5
1151 1 33.2775 5.60712 32.9127 1
1152 1 30.0803 6.74121 32.4809 1
1153 1 31.9648 6.87353 31.0058 1
1154 1 30.3839 7.3127 29.2463 5
1155 1 27.9423 5.03067 31.7024 1
1156 1 23.1216 6.93259 30.1042 5
1157 1 26.291 6.16551 30.3778 5
1158 1 23.6255 8.79627 28.9958 5
1159 1 21.5126 6.34112 31.6862 5
1160 1 19.9888 11.3208 30.2011 5
1161 1 21.8262 8.77934 30.8936 5
1162 1 17.8182 9.95674 29.3963 5
1163 1 19.8756 7.23408 29.5773 5
1164 1 18.2056 7.59269 28.097 5
1165 1 39.9193 41.5574 34.4009 5
1166 1 38.5956 1.94762 34.4116 5
1167 1 38.6717 42.5592 32.2177 5
1168 1 37.5401 2.88707 32.3346 5
1169 1 36.5712 42.7201 33.665 2
1170 1 34.7458 3.56419 32.5429 5
1171 1 35.3321 1.52433 31.79 2
1172 1 33.1825 4.51578 30.8663 5
1173 1 32.8402 2.2515 31.8871 5
1174 1 31.0795 4.6062 32.3917 5
1175 1 31.399 3.08509 29.7044 5
1176 1 29.8438 4.95648 30.2272 5
1177 1 29.4261 2.93257 31.6023 5
1178 1 24.2558 5.76791 31.6057 5
1179 1 27.7722 3.84865 29.449 5
1180 1 24.2897 4.64356 29.3362 5
1181 1 22.4322 4.06633 31.1581 5
1182 1 21.6621 7.39816 28.0698 5
1183 1 22.5397 3.04551 28.9177 5
1184 1 17.5817 5.62948 29.2376 5
1185 1 17.4089 3.65246 30.7357 5
1186 1 14.6664 8.10909 31.5389 1
1187 1 15.6241 4.48457 29.005 5
1188 1 15.9672 5.72755 31.2895 5
1189 1 12.8432 2.35819 31.7332 5
1190 1 8.03572 42.0538 22.9735 5
1191 1 37.8631 40.7718 33.6308 1
1192 1 37.946 39.2515 31.5785 5
1193 1 36.461 41.3726 31.6408 5
1194 1 35.8031 39.3494 33.0105 1
1195 1 34.5091 41.3815 33.1493 2
1196 1 34.7129 40.0321 30.6897 1
1197 1 33.2767 41.8855 31.1062 2
1198 1 32.5507 40.1144 32.5194 2
1199 1 31.0018 43.2125 31.1659 5
1200 1 31.2405 40.8685 30.4204 2
1201 1 29.2775 2.04522 29.2068 5
1202 1 28.7597 41.6883 30.616 2
1203 1 27.2093 1.90427 30.7099 1
1204 1 27.4434 42.4655 28.8258 5
1205 1 25.4856 42.0293 30.154 5
1206 1 23.4698 40.556 29.8254 5
1207 1 21.3638 5.23086 29.297 5
1208 1 21.9555 41.7001 27.8233 5
1209 1 20.4768 1.64555 28.1366 5
1210 1 19.8321 40.3395 27.3757 5
1211 1 14.8607 2.40223 30.1098 1
1212 1 18.173 43.0427 30.3728 5
1213 1 13.4524 3.68011 28.6946 5
1214 1 13.5046 38.5938 29.9695 5
1215 1 15.259 3.26668 32.4306 5
1216 1 11.0278 2.26119 27.9079 5
1217 1 8.97206 3.00307 23.82 5
1218 1 8.71625 3.05735 31.8251 5
1219 1 37.2233 37.2929 32.9714 5
1220 1 39.253 37.1343 30.9543 5
1221 1 36.313 37.9618 30.7762 5
1222 1 35.7023 35.6444 31.5871 5
1223 1 34.2763 38.1259 31.8648 5
1224 1 34.1444 36.4461 29.6168 5
1225 1 32.7313 38.6771 30.1012 5
1226 1 32.5572 36.3541 31.477 5
1227 1 30.7154 38.8972 31.5285 5
1228 1 30.8533 37.2994 29.401 5
1229 1 29.4836 39.6595 29.5075 2
1230 1 28.7028 36.9831 30.5122 5
1231 1 26.8641 40.0729 29.6671 5
1232 1 27.2604 37.8242 28.9172 5
1233 1 25.2416 41.201 28.1276 5
1234 1 25.0124 38.6237 29.3145 5
1235 1 21.511 39.4821 29.0538 5
1236 1 19.169 38.5642 28.4173 1
1237 1 23.7272 42.1305 25.9833 5
1238 1 18.2985 42.4003 27.6094 5
1239 1 16.1021 42.2834 29.3319 1
1240 1 14.9594 35.6238 26.6931 5
1241 1 14.633 43.271 27.8879 1
1242 1 14.0593 41.0684 28.5999 5
1243 1 12.5662 42.214 26.959 5
1244 1 11.5158 38.8968 25.5078 5
1245 1 8.36954 43.0956 25.3939 5
1246 1 10.4222 41.1465 26.4119 5
1247 1 38.0774 35.2207 31.9011 5
1248 1 39.54 35.9558 28.2521 5
1249 1 37.371 35.9603 29.8129 5
1250 1 36.804 33.4942 30.7887 5
1251 1 33.6757 34.2445 30.471 5
1252 1 35.5687 34.2979 28.8939 5
1253 1 32.1735 35.1809 28.6818 5
1254 1 31.5331 33.0546 29.6671 1
1255 1 30.1892 35.1445 30.0531 5
1256 1 30.0369 33.9091 27.6535 1
1257 1 28.7307 35.8506 28.314 1
1258 1 28.0893 33.5435 29.3089 5
1259 1 26.8924 35.5565 29.8718 5
1260 1 26.5698 34.4801 27.5697 1
1261 1 25.2173 36.4572 28.0719 2
1262 1 21.41 38.514 26.6164 5
1263 1 20.7301 37.4811 30.1274 1
1264 1 19.4946 39.5615 25.1033 5
1265 1 17.6672 41.2094 25.3151 5
1266 1 17.4806 39.1988 26.416 5
1267 1 16.6506 35.9592 31.2364 5
1268 1 15.3568 40.337 24.3095 5
1269 1 13.7825 39.949 26.4184 5
1270 1 15.3598 38.019 25.8136 5
1271 1 10.7159 41.6134 28.7458 5
1272 1 13.4531 37.6745 27.6109 5
1273 1 8.92863 38.8949 25.5904 5
1274 1 37.1816 32.2872 28.7504 5
1275 1 39.3623 32.4026 27.6118 5
1276 1 34.3725 29.8357 31.238 1
1277 1 35.1055 32.0431 30.1731 1
1278 1 35.0111 31.0983 27.9626 5
1279 1 33.7279 33.0105 28.2558 1
1280 1 32.894 31.0564 29.5644 5
1281 1 29.6479 31.5285 28.9673 1
1282 1 31.6114 31.906 27.4516 5
1283 1 28.2171 32.422 27.0548 1
1284 1 25.8205 32.6081 28.4957 1
1285 1 24.4473 34.3012 29.1005 5
1286 1 24.4296 33.1678 26.6923 1
1287 1 23.4606 35.3542 27.041 5
1288 1 22.718 33.0346 28.2168 5
1289 1 20.7569 36.6087 28.1013 5
1290 1 21.3086 34.6746 26.5578 5
1291 1 16.569 36.0971 24.7703 5
1292 1 16.3911 33.7449 26.3425 5
1293 1 16.3096 34.7984 28.8632 5
1294 1 13.5515 33.9754 26.457 5
1295 1 18.5323 34.8968 27.585 5
1296 1 10.3922 36.769 25.1961 5
1297 1 9.47084 35.4657 28.4472 5
1298 1 10.4789 33.9002 22.4019 5
1299 1 37.3332 30.9264 26.507 5
1300 1 36.0501 27.8723 30.8704 5
1301 1 32.3954 28.5206 30.109 5
1302 1 34.5016 28.7466 28.8781 5
1303 1 30.4846 29.3273 28.4727 5
1304 1 28.9109 29.4935 30.1297 5
1305 1 27.3244 30.5715 28.1409 1
1306 1 29.6897 30.6207 26.7169 1
1307 1 26.0483 31.2326 26.2143 1
1308 1 25.7038 29.0021 27.0333 5
1309 1 23.9607 31.0392 27.6385 1
1310 1 23.9871 30.2364 25.4014 1
1311 1 22.3395 32.1707 25.7975 5
1312 1 21.7638 29.9485 26.8535 1
1313 1 20.4905 32.232 27.5676 5
1314 1 20.4113 31.0057 25.2765 5
1315 1 18.8108 33.003 26.008 5
1316 1 18.1924 30.7303 26.7774 5
1317 1 14.8226 33.2447 28.2164 5
1318 1 18.9487 31.9064 23.7026 5
1319 1 13.1887 35.4744 28.4921 5
1320 1 11.4563 35.9225 27.059 5
1321 1 12.7221 30.7056 25.5984 5
1322 1 12.946 32.0842 20.0551 5
1323 1 39.9769 27.952 28.1781 5
1324 1 37.0305 25.7272 30.2678 5
1325 1 34.0925 26.7246 29.9165 5
1326 1 35.8154 26.381 28.3019 5
1327 1 32.4811 27.0687 28.0661 5
1328 1 31.8793 24.9479 29.0878 5
1329 1 30.2334 27.1472 29.5263 5
1330 1 30.2061 26.0995 27.3622 1
1331 1 28.5799 28.1101 27.49 5
1332 1 26.9237 26.6555 26.8926 5
1333 1 23.3759 27.993 26.3504 1
1334 1 21.8105 28.8112 24.6886 1
1335 1 19.7896 28.8191 26.0523 1
1336 1 18.5473 26.7681 27.1541 5
1337 1 17.3758 28.7207 27.2934 5
1338 1 18.307 29.5893 24.4402 5
1339 1 17.5708 27.621 25.139 5
1340 1 15.925 29.9131 25.8268 5
1341 1 15.8566 28.8708 23.6836 5
1342 1 33.5811 25.0377 27.1755 5
1343 1 34.3804 20.8505 28.0584 5
1344 1 32.8878 22.5857 28.403 5
1345 1 31.4049 24.0006 26.7514 1
1346 1 31.0262 21.831 27.6416 5
1347 1 29.7137 23.6439 28.3449 1
1348 1 24.7396 25.7318 25.9436 5
1349 1 39.6401 13.6379 28.6583 5
1350 1 36.5122 15.3684 30.2838 5
1351 1 35.0182 17.6338 30.7174 1
1352 1 41.4817 8.38172 30.9588 5
1353 1 37.5913 13.2037 30.2153 5
1354 1 39.2387 11.3555 29.9167 5
1355 1 36.593 14.5704 28.0551 5
1356 1 35.4924 12.3112 29.6037 5
1357 1 34.3741 14.3529 29.7597 5
1358 1 33.8939 13.2559 27.4991 5
1359 1 32.1191 13.0632 29.0596 1
1360 1 43.5847 8.11143 29.8694 2
1361 1 40.1278 9.4068 29.1168 1
1362 1 44.3648 7.43852 24.3637 5
1363 1 38.109 8.10806 28.5619 5
1364 1 38.4441 9.10342 30.9921 5
1365 1 36.6447 10.1086 28.7683 5
1366 1 39.2634 6.94396 30.2586 5
1367 1 35.4664 11.3216 27.0123 5
1368 1 35.812 6.70871 27.6207 1
1369 1 33.2668 11.1809 28.606 5
1370 1 34.604 8.5025 28.4541 5
1371 1 31.3307 9.89943 28.057 5
1372 1 29.0227 9.44905 29.4714 1
1373 1 26.5453 13.7068 30.2816 5
1374 1 27.6433 10.4415 27.7815 5
1375 1 25.7018 10.4339 29.5201 1
1376 1 43.6318 7.87054 32.3163 5
1377 1 40.3805 4.72424 29.9068 5
1378 1 39.2014 5.82421 28.0769 5
1379 1 37.9955 4.71123 31.1845 5
1380 1 33.9912 8.05839 31.6004 1
1381 1 37.1059 5.85464 29.4702 5
1382 1 35.8236 5.65112 25.4248 5
1383 1 33.8137 6.51495 29.3396 5
1384 1 30.5433 6.41038 26.2322 5
1385 1 32.38 7.7277 27.4988 5
1386 1 29.4598 8.363 27.2244 5
1387 1 28.1029 6.19303 28.5041 5
1388 1 27.0076 8.30546 28.9594 1
1389 1 26.9872 7.16665 26.693 1
1390 1 25.3396 9.01506 27.299 1
1391 1 25.0397 6.73949 28.2237 5
1392 1 23.3975 7.64524 26.3464 1
1393 1 25.2538 7.99464 24.834 1
1394 1 21.2518 6.39701 25.7527 1
1395 1 39.5572 2.69944 30.9186 5
1396 1 41.7075 43.1923 27.6514 5
1397 1 38.1342 3.64874 29.2372 5
1398 1 37.4789 43.1133 30.2267 1
1399 1 36.0046 3.24385 30.4649 5
1400 1 36.1652 2.35371 28.4009 5
1401 1 35.2877 4.40293 28.6449 5
1402 1 34.1663 2.40988 29.7971 5
1403 1 31.74 5.24241 28.964 5
1404 1 33.4199 3.21875 27.8843 5
1405 1 28.4955 5.22666 26.1051 5
1406 1 29.5959 4.40663 27.8596 5
1407 1 26.4197 4.76982 27.6658 5
1408 1 27.6503 2.73675 27.2767 1
1409 1 24.7351 5.6001 25.9167 1
1410 1 24.3367 3.21003 27.2857 1
1411 1 22.7678 5.34408 27.4254 5
1412 1 20.9186 3.68959 26.9222 1
1413 1 19.1085 4.8193 25.4009 5
1414 1 19.2703 3.85832 28.8647 5
1415 1 17.5028 4.45752 26.9544 5
1416 1 17.0075 3.78843 24.4218 1
1417 1 10.7573 3.21767 30.0578 5
1418 1 38.7335 41.1522 30.2576 5
1419 1 40.9896 41.3614 28.5336 5
1420 1 37.4951 42.1004 28.0812 1
1421 1 36.591 39.9927 28.9865 5
1422 1 35.3665 42.079 29.6305 1
1423 1 35.4023 40.8613 27.0775 1
1424 1 34.303 42.8531 27.6239 5
1425 1 33.4334 40.7857 28.8116 1
1426 1 32.2981 42.9084 28.9731 5
1427 1 32.1025 41.4993 26.8376 5
1428 1 31.1708 2.22248 27.2512 5
1429 1 30.1695 41.7712 28.4984 5
1430 1 25.7198 2.46969 29.0007 1
1431 1 28.9149 42.4828 26.7188 5
1432 1 27.5074 1.49495 25.139 5
1433 1 25.8762 43.417 26.6795 5
1434 1 22.4604 2.04571 26.3358 5
1435 1 23.853 43.0451 28.0989 5
1436 1 18.7907 2.58944 26.3426 5
1437 1 20.7638 42.5639 25.8869 5
1438 1 17.0962 2.40884 28.4675 5
1439 1 16.663 43.3993 26.2383 1
1440 1 13.8992 5.42791 27.491 5
1441 1 12.6632 42.9933 29.5068 5
1442 1 11.6815 4.91643 26.5423 5
1443 1 14.9298 2.66828 24.4187 1
1444 1 14.7695 42.2578 25.5458 1
1445 1 40.1485 39.3142 29.9834 5
1446 1 38.747 39.8953 27.8549 5
1447 1 38.0471 37.9187 28.8805 5
1448 1 34.7464 38.5036 28.401 5
1449 1 36.7405 38.6403 26.8527 1
1450 1 33.2765 39.3943 26.4138 1
1451 1 32.826 37.4744 27.5605 1
1452 1 31.3258 39.3797 28.1386 1
1453 1 31.2907 38.3942 25.8954 1
1454 1 30.1766 40.3317 25.9239 1
1455 1 29.2482 38.233 27.3892 1
1456 1 27.9903 40.2885 27.7628 5
1457 1 27.7829 39.2526 25.5428 1
1458 1 26.8137 41.1648 25.9547 5
1459 1 26.1598 38.8778 27.1576 5
1460 1 23.357 39.6719 27.5003 2
1461 1 25.4777 42.0998 24.2826 5
1462 1 23.1335 40.7433 23.2349 5
1463 1 21.9777 40.5914 25.5871 5
1464 1 17.4512 40.313 28.8934 1
1465 1 21.1558 39.551 22.7006 5
1466 1 15.292 3.74538 26.71 5
1467 1 13.5145 38.9614 23.9687 5
1468 1 10.851 43.4424 25.6838 5
1469 1 12.9237 38.2091 21.5882 5
1470 1 16.0028 40.9222 26.8716 5
1471 1 11.8333 40.0833 22.6542 5
1472 1 10.2897 42.6598 23.2112 5
1473 1 12.3161 41.2943 24.7776 5
1474 1 41.8274 36.2037 27.3909 5
1475 1 38.2471 36.7858 26.4715 5
1476 1 37.9375 34.4354 27.6466 5
1477 1 36.0882 36.5373 27.9825 5
1478 1 36.403 35.2942 25.8754 1
1479 1 34.9052 37.2724 25.9592 1
1480 1 34.0401 35.3175 27.1629 1
1481 1 30.6587 36.0994 27.0191 1
1482 1 32.6067 36.2587 25.4476 1
1483 1 29.3794 37.1482 25.2704 1
1484 1 28.5676 34.7843 26.1915 1
1485 1 27.1399 36.7146 26.6549 1
1486 1 27.4807 35.8317 24.4593 1
1487 1 26.0647 37.7123 24.7954 1
1488 1 24.0549 37.4616 26.2167 2
1489 1 24.6376 39.9734 25.4376 5
1490 1 23.8868 36.7699 23.9023 1
1491 1 22.5876 37.7825 22.0151 1
1492 1 22.6167 38.6122 24.495 5
1493 1 17.3511 38.4352 24.0907 5
1494 1 20.4068 37.4922 23.8518 5
1495 1 18.856 38.5407 22.2045 5
1496 1 12.0167 36.7773 23.2995 5
1497 1 13.3493 37.2259 25.3252 5
1498 1 16.7077 37.5013 21.5888 5
1499 1 9.96855 38.2827 23.0759 5
1500 1 10.1067 37.8089 27.356 5
1501 1 38.8101 35.4663 24.4143 5
1502 1 38.5585 30.2121 28.2056 5
1503 1 35.6522 33.0684 26.8307 1
1504 1 37.2208 29.7991 24.4034 5
1505 1 34.2713 33.9751 24.9666 1
1506 1 33.5473 31.6195 26.2335 1
1507 1 32.1374 33.9525 26.3648 1
1508 1 32.0946 32.9583 24.1035 1
1509 1 30.5031 34.8558 24.825 1
1510 1 29.9527 32.6846 25.3595 5
1511 1 25.3993 35.6026 25.531 1
1512 1 26.5907 32.4406 23.1465 1
1513 1 25.1403 34.3401 23.5199 1
1514 1 23.236 34.5015 24.8981 1
1515 1 21.5611 36.5486 25.4556 5
1516 1 22.8999 33.2617 22.5762 5
1517 1 21.8617 35.528 23.1079 1
1518 1 19.6589 35.4338 24.7553 5
1519 1 15.1349 37.1771 23.2389 5
1520 1 19.6946 34.1605 22.3862 5
1521 1 20.548 36.6823 21.3915 5
1522 1 18.3394 36.3499 22.8437 5
1523 1 10.8575 36.6375 21.2396 5
1524 1 16.2594 35.276 22.5469 5
1525 1 15.2272 33.6376 20.8652 2
1526 1 15.506 33.1181 23.5931 5
1527 1 36.433 27.3795 25.2828 5
1528 1 37.6931 27.8199 29.0843 5
1529 1 35.5787 32.1324 24.5722 5
1530 1 34.6639 27.3285 26.5541 5
1531 1 34.1494 33.1439 22.9372 5
1532 1 32.8142 29.4434 27.2804 5
1533 1 31.5233 30.6436 25.308 1
1534 1 32.9107 28.3533 24.9614 1
1535 1 28.3311 31.4869 24.7817 5
1536 1 27.6362 29.5004 25.5878 5
1537 1 24.4538 32.35 24.4705 1
1538 1 25.9612 30.3072 24.1258 1
1539 1 28.719 32.6128 21.6783 5
1540 1 22.528 30.8098 23.5192 5
1541 1 20.9402 33.5958 24.444 5
1542 1 24.5251 31.0589 22.2091 1
1543 1 19.8103 33.1617 20.0977 2
1544 1 21.1293 32.0323 21.8272 5
1545 1 17.7455 34.2013 23.9937 5
1546 1 21.1853 31.0556 19.3999 5
1547 1 16.7465 31.117 20.2984 2
1548 1 18.8354 30.9583 21.0318 2
1549 1 16.8314 31.9037 25.287 5
1550 1 17.4824 33.043 21.7514 2
1551 1 37.8913 26.6406 26.9623 5
1552 1 37.2952 24.6222 28.0289 5
1553 1 36.6598 28.6937 27.2223 5
1554 1 39.1866 22.894 24.5392 5
1555 1 32.3494 26.2448 25.841 1
1556 1 35.7266 25.3186 26.1415 5
1557 1 30.6593 28.2398 26.2012 5
1558 1 30.9694 27.316 23.9727 1
1559 1 29.5345 28.0506 22.2275 5
1560 1 28.8831 27.0319 25.4134 5
1561 1 27.6156 28.1052 23.4237 5
1562 1 24.0125 28.9079 23.273 1
1563 1 20.3208 29.7465 22.8643 1
1564 1 33.5786 23.8863 25.1315 5
1565 1 40.8462 11.4991 28.2277 5
1566 1 41.057 12.729 30.5039 5
1567 1 39.5474 12.5179 26.2923 5
1568 1 37.7329 12.39 28.0626 5
1569 1 43.081 11.4259 26.6659 5
1570 1 44.4246 9.15394 26.4178 1
1571 1 40.8352 10.2671 26.0464 5
1572 1 43.4544 6.76367 27.7485 1
1573 1 38.8 10.2738 27.2581 5
1574 1 38.7097 8.84096 24.9812 5
1575 1 37.4739 11.127 25.5295 5
1576 1 36.5771 9.06943 26.4298 5
1577 1 31.8843 11.9553 26.7975 1
1578 1 33.0758 9.85621 26.3223 5
1579 1 29.6661 10.565 26.2113 5
1580 1 41.4283 6.86527 28.9196 1
1581 1 43.3038 5.5107 25.6045 5
1582 1 41.1527 5.73808 26.7374 5
1583 1 40.066 3.43697 27.9411 5
1584 1 36.8381 11.1921 31.371 5
1585 1 37.8809 6.98702 26.5217 5
1586 1 36.3532 7.68528 24.4307 5
1587 1 33.7451 5.40809 26.9657 1
1588 1 34.5184 7.85511 25.7359 1
1589 1 32.5391 6.49952 24.9826 5
1590 1 31.0611 8.58316 25.2583 5
1591 1 28.7522 7.26696 24.8574 5
1592 1 27.5936 9.26874 25.8795 1
1593 1 29.4885 2.82386 25.8223 5
1594 1 26.5085 6.0632 24.366 1
1595 1 42.6265 4.84597 28.7582 5
1596 1 42.1006 3.59823 26.6953 5
1597 1 40.3967 2.05243 25.2303 5
1598 1 38.2883 2.44472 26.8368 5
1599 1 37.0619 4.48609 27.0317 5
1600 1 36.3849 42.9291 26.0348 1
1601 1 37.0731 3.34339 25.0324 5
1602 1 35.2925 3.04817 26.347 5
1603 1 33.7188 4.10903 24.7861 1
1604 1 34.8607 1.99705 23.9717 1
1605 1 30.2599 5.24223 24.3852 5
1606 1 31.5936 2.93944 23.942 5
1607 1 31.8563 4.28304 26.2511 5
1608 1 28.1108 3.88438 23.9219 5
1609 1 26.454 3.82594 25.3279 1
1610 1 22.8651 4.19175 25.18 1
1611 1 20.9744 2.84318 24.4917 1
1612 1 44.0033 42.3038 23.9564 1
1613 1 41.7015 41.9853 25.393 1
1614 1 39.4824 41.8447 26.5175 1
1615 1 37.3715 40.737 25.6944 1
1616 1 38.1693 42.8749 24.7692 5
1617 1 36.1396 41.7108 23.7845 1
1618 1 34.2439 41.7525 25.2243 1
1619 1 33.0352 2.02034 25.6945 5
1620 1 34.1663 40.291 23.0288 1
1621 1 32.8129 42.646 23.3407 1
1622 1 30.8088 42.4605 24.8073 5
1623 1 29.1087 43.5353 23.6006 5
1624 1 30.8884 41.3932 22.7562 5
1625 1 26.2892 2.30047 23.418 5
1626 1 27.4614 42.1259 22.6985 5
1627 1 24.3152 2.28901 24.7587 1
1628 1 23.9425 43.0644 22.3865 1
1629 1 22.3702 43.1879 24.1632 5
1630 1 18.6907 1.5938 24.0867 5
1631 1 16.4916 42.3453 23.6551 5
1632 1 39.5152 41.0806 24.3563 5
1633 1 40.7515 36.8735 25.0387 5
1634 1 39.0881 38.7683 25.1664 1
1635 1 39.3239 37.5212 23.078 5
1636 1 37.6037 39.6069 23.4392 1
1637 1 35.5352 39.4995 25.0589 1
1638 1 32.1057 40.5709 24.521 1
1639 1 35.6534 38.6113 22.5395 1
1640 1 31.9696 39.1458 22.362 1
1641 1 30.0899 39.1503 23.8712 1
1642 1 28.6934 41.1799 24.3801 1
1643 1 28.6778 39.8639 21.9911 1
1644 1 30.6059 39.942 20.5616 1
1645 1 26.5525 39.804 23.5884 1
1646 1 25.2257 41.1559 22.0825 1
1647 1 26.4975 38.8244 21.6452 1
1648 1 19.9807 41.4799 23.7999 5
1649 1 22.972 39.7393 20.8743 1
1650 1 17.4967 40.2619 22.6893 5
1651 1 19.6669 40.7379 21.4157 5
1652 1 15.2713 39.5705 21.8662 5
1653 1 15.9838 41.8568 21.3335 5
1654 1 38.2424 34.355 22.3711 5
1655 1 40.3015 34.5432 26.3702 5
1656 1 37.2205 37.4452 24.5387 1
1657 1 36.2745 32.8139 21.7514 5
1658 1 37.3383 36.7006 22.3457 1
1659 1 34.8626 36.4242 23.7291 1
1660 1 33.3903 38.1723 24.3702 1
1661 1 35.0908 35.0741 21.6861 5
1662 1 33.5473 37.1696 21.9931 1
1663 1 31.3164 37.185 23.5005 1
1664 1 27.953 37.8576 23.3161 1
1665 1 29.6143 35.9316 22.6935 1
1666 1 28.4293 38.9794 19.8064 1
1667 1 25.9373 36.6893 22.6754 1
1668 1 24.5444 38.7234 23.012 1
1669 1 26.4834 37.9534 19.0968 1
1670 1 24.4175 37.7123 20.8078 1
1671 1 23.7268 35.4886 21.666 1
1672 1 20.934 38.4661 20.2668 5
1673 1 22.4362 36.4106 19.8399 1
1674 1 17.1295 39.6028 20.2365 5
1675 1 18.553 37.4981 20.0692 5
1676 1 14.1017 41.6332 23.1577 1
1677 1 15.0322 38.3211 19.8484 5
1678 1 9.14687 34.8714 21.0682 5
1679 1 40.1272 33.2222 24.2035 5
1680 1 37.8732 32.1217 23.3693 5
1681 1 38.0251 33.3455 25.484 1
1682 1 35.9446 30.4667 22.5521 5
1683 1 37.151 35.0491 20.2262 5
1684 1 36.2661 34.3242 23.4747 5
1685 1 32.7554 35.1333 23.2322 1
1686 1 34.3694 31.8506 20.8758 5
1687 1 30.138 31.4007 23.03 5
1688 1 26.4196 33.3923 25.2733 1
1689 1 28.4652 33.7727 23.954 5
1690 1 30.6301 32.6941 20.1835 5
1691 1 28.8867 34.9114 20.4242 5
1692 1 25.876 35.6667 20.5075 1
1693 1 21.799 34.3197 20.8659 1
1694 1 26.9714 33.5154 19.7321 1
1695 1 24.4111 36.5507 18.3804 1
1696 1 23.6757 34.3196 19.5135 1
1697 1 20.439 35.3262 19.3496 5
1698 1 22.3463 35.4734 17.5623 5
1699 1 18.2296 35.7283 18.4628 5
1700 1 17.2406 33.5544 19.202 5
1701 1 16.0924 35.9096 20.0426 5
1702 1 15.571 34.5003 17.6381 5
1703 1 9.75143 38.5677 16.2092 5
1704 1 18.0496 34.9476 20.8761 5
1705 1 11.7124 34.9571 24.7229 5
1706 1 11.6424 33.2751 12.8683 5
1707 1 37.9787 25.1362 25.2064 5
1708 1 35.0225 29.9737 25.8926 5
1709 1 37.1085 28.4993 22.3315 1
1710 1 34.232 30.7924 18.7225 1
1711 1 34.9903 28.5287 23.7334 5
1712 1 33.858 30.8771 23.7257 5
1713 1 33.8283 29.5211 21.7397 1
1714 1 31.7068 29.3308 23.014 1
1715 1 29.518 29.4726 24.3677 5
1716 1 27.2073 34.7369 22.0452 1
1717 1 27.8302 30.5151 22.6586 5
1718 1 28.6066 31.3155 19.452 5
1719 1 26.468 31.3829 20.681 5
1720 1 25.0758 33.3668 21.3792 1
1721 1 25.2198 32.4355 18.5894 5
1722 1 23.2152 31.9693 20.3938 5
1723 1 21.5305 33.3016 18.5183 2
1724 1 19.3474 33.5923 17.5958 5
1725 1 15.0387 32.5506 18.3177 1
1726 1 34.2337 25.9838 24.2078 1
1727 1 35.2506 27.5887 21.1137 1
1728 1 32.2623 25.0705 23.4913 5
1729 1 32.9292 27.3378 22.3363 1
1730 1 26.2004 29.1355 21.6292 5
1731 1 45.306 9.28597 23.0278 5
1732 1 40.1323 8.03319 27.1209 5
1733 1 42.1742 6.80303 23.5807 5
1734 1 40.8459 7.70766 21.3719 5
1735 1 39.3085 4.40328 25.8773 5
1736 1 39.7897 6.61503 25.0144 5
1737 1 39.9829 5.45522 22.7977 1
1738 1 37.8515 5.34896 24.2913 5
1739 1 42.1288 5.85827 21.3937 5
1740 1 42.3719 2.42943 24.2778 5
1741 1 39.1649 3.20279 23.5702 5
1742 1 39.7282 3.48241 18.351 5
1743 1 37.9522 4.07862 21.6473 1
1744 1 37.0066 1.77091 22.5383 5
1745 1 35.9426 4.21095 23.1348 1
1746 1 35.7377 2.94459 21.1247 5
1747 1 33.4542 2.94853 22.4286 1
1748 1 42.8893 43.3924 21.9802 1
1749 1 41.8724 41.1804 22.8208 1
1750 1 40.6592 43.0685 23.0567 5
1751 1 40.6059 41.9042 20.8135 5
1752 1 39.0562 1.98383 21.0879 5
1753 1 38.628 41.9899 22.3586 5
1754 1 34.7025 42.3862 22.0653 5
1755 1 37.1252 42.8043 20.3 5
1756 1 33.3479 1.61357 20.1141 1
1757 1 32.6331 41.0618 21.2248 1
1758 1 31.2706 1.62269 21.4598 5
1759 1 31.1892 42.4996 19.5028 5
1760 1 29.154 42.365 20.873 5
1761 1 42.137 39.9371 20.5657 5
1762 1 41.1018 37.5584 21.4631 5
1763 1 39.8079 39.6104 22.0863 5
1764 1 39.6263 38.5016 19.5681 5
1765 1 38.4613 40.6945 19.8722 1
1766 1 37.9598 38.4325 21.1882 5
1767 1 36.555 40.6019 21.623 5
1768 1 36.4116 39.154 19.3604 5
1769 1 33.2696 42.4712 17.8815 5
1770 1 31.5461 35.8341 21.4584 5
1771 1 34.2609 39.1634 20.4297 1
1772 1 32.1605 38.1987 19.897 1
1773 1 25.6162 42.0557 18.614 1
1774 1 29.2461 41.2214 18.6076 1
1775 1 27.244 40.8697 20.2545 1
1776 1 25.4266 40.881 16.0513 1
1777 1 25.1745 39.8516 19.4405 1
1778 1 42.713 35.9026 21.4013 5
1779 1 42.2219 31.6544 20.981 5
1780 1 39.1776 36.464 20.7454 5
1781 1 40.3098 34.1496 20.6775 5
1782 1 38.0358 37.1725 18.659 5
1783 1 32.6405 33.8443 21.2107 1
1784 1 35.6915 37.2906 20.7573 5
1785 1 33.5202 35.8122 19.9581 5
1786 1 36.8106 41.5486 18.2384 1
1787 1 30.6078 33.7301 22.3621 5
1788 1 30.2158 37.8628 21.533 1
1789 1 29.9604 36.9494 19.3865 5
1790 1 30.4972 38.9795 18.1984 5
1791 1 28.1204 37.0128 21.0488 1
1792 1 27.2339 40.0266 17.8295 1
1793 1 28.5686 37.9164 17.5815 1
1794 1 23.3533 39.6822 15.5783 5
1795 1 24.9988 38.6884 17.0839 1
1796 1 23.0277 38.5395 18.73 5
1797 1 20.6331 38.22 15.4522 5
1798 1 21.1366 37.3626 18.1479 5
1799 1 40.1199 32.0101 22.1496 5
1800 1 39.8966 30.9013 20.0019 5
1801 1 36.4283 32.0614 19.2099 5
1802 1 37.9859 30.7907 21.3775 1
1803 1 36.0505 36.4027 18.3286 5
1804 1 38.6758 31.2664 16.0309 5
1805 1 32.0517 35.7883 16.0603 5
1806 1 36.6576 31.033 17.2124 5
1807 1 31.5741 34.9751 18.8811 5
1808 1 31.2869 33.5792 16.9947 5
1809 1 30.0142 35.7677 17.3562 5
1810 1 29.0803 33.5626 18.1287 5
1811 1 27.4165 35.8156 18.7056 1
1812 1 28.0359 34.6156 16.3812 1
1813 1 26.5925 36.9032 16.8 1
1814 1 25.7362 34.7278 17.6682 1
1815 1 22.8287 37.3891 16.3484 5
1816 1 24.2426 35.66 15.7503 2
1817 1 21.8665 36.0657 14.8471 2
1818 1 20.0299 35.7021 16.3657 5
1819 1 16.3556 36.9791 16.5362 5
1820 1 35.9489 29.883 20.2096 1
1821 1 41.519 26.525 18.7178 5
1822 1 37.9689 30.0826 19.0419 5
1823 1 39.8417 28.3092 18.849 5
1824 1 32.2175 31.5852 21.8909 1
1825 1 34.9527 34.167 19.3823 5
1826 1 32.1692 30.7443 19.7353 1
1827 1 30.1864 30.4094 21.0606 5
1828 1 30.7004 31.4987 17.7498 1
1829 1 29.159 32.2565 16.0243 1
1830 1 27.2508 32.2788 17.3912 1
1831 1 38.7832 26.6271 21.9028 1
1832 1 46.3774 9.95392 19.197 1
1833 1 40.4554 5.50895 17.2519 5
1834 1 38.4897 5.52947 18.5243 5
1835 1 38.3438 6.46776 20.7419 1
1836 1 41.5574 1.97564 19.9579 5
1837 1 36.2479 5.28667 20.0988 1
1838 1 43.3043 7.35905 14.4004 5
1839 1 43.055 41.9319 19.8512 5
1840 1 43.6346 3.67617 20.8572 5
1841 1 41.9241 42.6609 17.9974 5
1842 1 39.1494 43.036 18.6612 5
1843 1 39.9154 4.7734 20.5987 5
1844 1 37.7752 3.31219 19.4597 5
1845 1 40.5965 40.8529 18.0433 5
1846 1 42.1364 38.8552 18.3003 5
1847 1 40.6089 39.3363 16.1546 5
1848 1 38.3577 39.3557 17.4239 5
1849 1 35.3857 1.47122 18.7794 5
1850 1 35.8461 2.67721 15.3881 1
1851 1 34.6076 41.3421 19.6858 5
1852 1 31.0074 41.4225 17.4331 5
1853 1 29.1541 39.9745 16.3164 5
1854 1 41.3961 36.0702 19.4156 5
1855 1 42.2901 37.1675 16.2478 1
1856 1 40.2422 37.2239 17.4848 5
1857 1 34.1392 37.8021 18.7683 5
1858 1 34.8628 39.9234 17.4635 5
1859 1 35.7515 35.2073 16.3544 5
1860 1 34.0013 2.70661 16.8122 1
1861 1 32.086 36.8906 17.883 5
1862 1 32.5741 37.878 14.6771 5
1863 1 32.8413 38.7327 16.9119 5
1864 1 30.6628 37.9205 16.029 1
1865 1 26.8837 39.0843 15.6905 5
1866 1 39.4177 34.9105 18.5287 5
1867 1 39.5038 33.6762 16.4598 5
1868 1 37.2733 32.8956 15.807 5
1869 1 34.9286 32.9687 17.3902 5
1870 1 38.6029 32.3711 18.1279 5
1871 1 35.5798 34.2819 14.088 5
1872 1 34.439 37.0166 16.6435 5
1873 1 33.6172 35.027 17.7199 5
1874 1 32.1756 34.9143 13.6777 1
1875 1 33.5626 33.7368 15.451 1
1876 1 30.5984 36.5384 14.2361 5
1877 1 30.106 34.5495 15.1941 1
1878 1 28.6318 36.7116 15.4695 5
1879 1 28.4318 35.8043 13.0571 5
1880 1 26.438 35.6066 14.3841 5
1881 1 38.3409 32.9766 20.4006 5
1882 1 39.6506 27.1798 16.7749 5
1883 1 38.1132 28.9806 16.6425 5
1884 1 34.944 31.9096 14.7475 5
1885 1 32.7927 32.765 18.8535 1
1886 1 42.5494 5.452 15.9948 5
1887 1 42.7415 40.2887 16.7189 5
1888 1 41.1636 37.7931 13.8732 5
1889 1 43.0312 38.8855 14.5813 5
1890 1 38.5646 38.0495 14.8138 5
1891 1 37.1671 34.2732 17.7761 5
1892 1 36.6643 37.8644 16.5147 5
1893 1 32.8049 40.2169 18.7527 5
1894 1 42.6686 35.8362 13.7098 5
1895 1 40.4377 35.6294 15.291 5
1896 1 37.8706 34.2144 12.1721 5
1897 1 34.459 35.3499 12.1939 5
1898 1 34.2555 35.9137 14.6318 5
1899 1 10.9963 40.5213 3.20338 5
1900 1 12.6777 41.7643 4.37852 5
1901 1 13.2795 42.8543 6.80912 1
1902 1 7.73238 43.4015 7.77489 5
1903 1 11.3641 42.9329 8.26604 5
1904 1 16.1926 39.644 7.65017 5
1905 1 10.1886 3.19772 8.75575 5
1906 1 4.0946 42.5206 9.3815 5
1907 1 11.1011 41.4845 40.9589 5
1908 1 14.0268 3.20483 40.6651 5
1909 1 6.5115 2.81313 6.25673 5
1910 1 6.48399 1.77372 4.21633 5
1911 1 9.71944 42.4947 4.24575 5
1912 1 11.4305 42.5947 2.23037 1
1913 1 10.3942 2.64672 3.0463 5
1914 1 12.2066 3.10852 41.9753 1
1915 1 13.6555 2.05205 3.25289 1
1916 1 14.5271 3.883 2.15454 5
1917 1 16.418 4.28707 41.3309 1
1918 1 15.7311 3.26102 4.0522 1
1919 1 18.596 5.82607 41.9129 5
1920 1 20.9916 6.36713 42.675 5
1921 1 23.2566 7.92033 2.61178 5
1922 1 4.81915 4.19823 5.44438 5
1923 1 4.89976 2.86625 7.87569 5
1924 1 9.85261 1.6638 6.39209 5
1925 1 6.95799 5.04213 6.00749 5
1926 1 8.61098 2.93495 4.75121 5
1927 1 8.70721 3.74671 7.25881 5
1928 1 11.6385 2.02256 4.73534 1
1929 1 10.4755 4.24668 5.28636 5
1930 1 12.5586 4.39387 3.54724 5
1931 1 11.8699 3.06337 6.87947 1
1932 1 13.7298 3.13114 5.58383 1
1933 1 14.6718 5.41919 4.19291 5
1934 1 16.7675 5.48802 2.89117 1
1935 1 18.7598 6.37729 3.4592 5
1936 1 -0.477362 4.56237 7.38135 5
1937 1 4.87959 5.43155 7.82384 2
1938 1 3.12121 2.6672 9.48276 5
1939 1 6.81059 4.16999 8.70161 5
1940 1 6.87689 6.50249 8.32122 5
1941 1 9.22061 6.0934 6.11766 5
1942 1 8.9783 5.43795 9.52655 5
1943 1 9.36015 7.40314 8.58949 5
1944 1 12.5504 5.18313 5.87628 1
1945 1 49.7841 5.56909 8.907 5
1946 1 -3.27028 4.47759 7.40712 5
1947 1 -2.21369 4.81227 9.29452 5
1948 1 1.03703 4.27832 9.31984 5
1949 1 1.33069 5.67807 11.4427 5
1950 1 2.98666 5.54991 9.7057 5
1951 1 7.63871 7.59479 10.3371 5
1952 1 -3.95703 4.86022 10.9223 5
1953 1 -3.00133 13.5806 14.0792 5
1954 1 -3.35607 7.18133 9.48278 5
1955 1 46.9759 5.12407 13.0166 5
1956 1 7.64975 6.20236 36.8996 5
1957 1 13.0078 5.04314 35.6227 5
1958 1 16.2359 8.36392 35.8959 5
1959 1 5.34609 3.59419 39.7794 5
1960 1 9.7901 1.92036 41.4358 5
1961 1 6.44921 3.03101 41.6301 5
1962 1 10.3314 3.14108 38.1052 5
1963 1 8.96529 5.06438 38.6349 5
1964 1 11.1556 5.22272 37.1093 1
1965 1 12.0207 1.78311 40.1768 5
1966 1 16.4731 2.99893 39.0839 5
1967 1 12.7882 4.0959 38.5666 5
1968 1 13.3412 6.38555 37.6836 5
1969 1 14.7825 3.8423 37.5762 5
1970 1 17.8662 7.5053 37.0324 5
1971 1 3.15961 4.90276 4.04326 5
1972 1 4.53456 2.4847 2.76404 5
1973 1 4.68913 4.8195 42.4431 5
1974 1 7.11617 4.81649 40.3807 5
1975 1 8.46001 4.06839 42.2688 5
1976 1 10.1416 4.03195 40.4964 5
1977 1 9.61416 6.38345 41.0277 5
1978 1 11.6048 6.02886 39.3026 5
1979 1 12.702 5.34723 41.268 5
1980 1 14.9108 5.31998 39.6587 1
1981 1 13.5898 7.27362 40.3093 1
1982 1 15.7309 7.73336 38.4448 5
1983 1 17.4058 6.73097 40.1298 1
1984 1 19.3058 6.70163 38.7334 5
1985 1 18.1999 8.93462 39.4108 5
1986 1 20.441 8.68573 37.7386 5
1987 1 19.3654 7.90955 41.179 5
1988 1 21.2059 8.04678 39.7813 5
1989 1 21.5013 8.75117 42.208 5
1990 1 20.044 10.2112 40.4695 5
1991 1 23.4171 9.16945 40.8556 5
1992 1 22.3175 9.78945 38.9107 5
1993 1 30.2644 11.1616 41.0797 5
1994 1 -0.821739 7.06894 3.5424 5
1995 1 3.14223 3.34374 41.3396 5
1996 1 5.58853 6.2966 4.08242 5
1997 1 6.4541 4.05332 3.67611 5
1998 1 3.99766 7.15252 2.52139 5
1999 1 6.98194 6.03117 42.6505 5
2000 1 8.75094 5.15298 3.72233 5
2001 1 10.6248 5.12466 42.7929 5
2002 1 9.55372 7.60492 2.62022 5
2003 1 11.5601 7.51753 41.4212 5
2004 1 12.8481 6.71097 2.52276 5
2005 1 15.1057 6.57055 41.8995 5
2006 1 14.0272 8.75829 42.4429 5
2007 1 16.1174 8.78735 40.7516 5
2008 1 15.3049 7.6987 3.7567 5
2009 1 17.2014 7.65448 42.5662 5
2010 1 15.9735 9.90327 2.3584 1
2011 1 18.1134 9.91115 41.7839 5
2012 1 21.2807 7.96877 3.95802 5
2013 1 19.3666 8.93636 2.78453 5
2014 1 20.0986 11.1228 42.6307 1
2015 1 22.2823 11.1481 41.1461 1
2016 1 -3.08179 5.62439 4.06291 5
2017 1 1.42936 4.62543 5.69121 5
2018 1 2.73668 3.91574 7.49909 5
2019 1 0.223694 6.93763 5.96377 5
2020 1 1.95748 6.88643 4.0738 5
2021 1 3.14042 6.20904 6.24288 5
2022 1 5.58839 7.40969 6.54472 5
2023 1 4.16675 8.35892 4.71141 5
2024 1 6.298 8.09209 2.83654 5
2025 1 7.99756 8.39035 6.79071 5
2026 1 11.0146 6.42988 4.05879 1
2027 1 7.5583 7.19244 4.72451 5
2028 1 11.8439 8.68872 3.20201 5
2029 1 11.1629 7.53932 6.60398 5
2030 1 13.1702 7.43977 4.82794 5
2031 1 12.2812 11.0154 42.6128 5
2032 1 14.0663 9.70495 4.16057 5
2033 1 18.1882 11.0486 3.1426 1
2034 1 -4.91083 7.22173 7.31153 5
2035 1 -1.81009 6.8807 7.70835 5
2036 1 -0.359734 6.33388 9.61489 5
2037 1 1.15532 6.14863 7.8438 5
2038 1 0.315635 8.30574 8.17413 5
2039 1 2.34858 8.33939 6.12905 5
2040 1 1.67874 7.60087 10.0303 1
2041 1 3.34333 7.55556 8.23121 5
2042 1 4.33005 9.4443 6.7446 1
2043 1 6.29312 9.30038 4.87857 5
2044 1 5.95197 8.7793 8.63565 5
2045 1 9.963 9.8373 7.29414 1
2046 1 6.66543 11.0945 7.11031 5
2047 1 9.7594 8.50025 5.05315 1
2048 1 48.1265 7.83274 8.94535 5
2049 1 43.4614 9.72778 13.0992 5
2050 1 49.401 6.90506 10.9182 1
2051 1 49.0445 4.86055 12.0651 5
2052 1 -1.6293 8.7685 10.1504 5
2053 1 50.2096 10.5905 11.4691 5
2054 1 -0.0834498 8.1614 11.7249 1
2055 1 -1.43104 10.1286 11.9312 5
2056 1 2.45919 9.65293 8.42987 1
2057 1 4.75264 10.9129 8.72362 1
2058 1 45.9259 7.71902 10.3673 5
2059 1 46.2179 9.91387 8.93221 5
2060 1 6.71541 2.99176 33.2587 5
2061 1 13.962 4.55481 30.8262 5
2062 1 2.30409 3.83852 36.4295 5
2063 1 5.05873 3.79249 34.9111 5
2064 1 6.86132 3.77597 37.7799 5
2065 1 9.02044 4.07989 36.4504 5
2066 1 6.24791 7.65008 34.9286 5
2067 1 9.63746 5.14745 33.0143 5
2068 1 11.5322 5.99024 34.0498 1
2069 1 13.124 4.09908 33.4534 5
2070 1 10.4963 8.27334 34.1704 1
2071 1 11.6077 4.77104 31.662 5
2072 1 13.8631 6.95846 35.0419 5
2073 1 17.0947 10.3836 34.7653 5
2074 1 18.2353 8.36352 34.0501 5
2075 1 20.5319 9.60659 35.1877 5
2076 1 4.58808 3.90072 37.603 5
2077 1 3.22932 6.00509 37.7175 5
2078 1 5.21226 5.90638 36.2584 5
2079 1 5.78528 5.95389 38.5912 5
2080 1 7.46185 4.71468 34.6874 5
2081 1 6.47367 8.04892 37.4178 5
2082 1 9.35425 6.19146 35.2268 1
2083 1 9.70315 7.27815 37.5275 5
2084 1 11.5192 7.20934 36.1868 5
2085 1 8.53054 8.57907 35.7333 1
2086 1 11.5094 10.3613 33.3642 5
2087 1 12.381 8.44057 38.6183 5
2088 1 12.5553 9.22444 35.2972 1
2089 1 11.2408 11.5379 35.4651 5
2090 1 14.8876 10.4115 36.1157 5
2091 1 14.0559 8.43216 37.0368 5
2092 1 22.585 9.3316 33.8521 5
2093 1 19.5819 11.7458 35.4729 5
2094 1 23.7485 11.6324 32.9509 5
2095 1 22.8175 10.9691 35.6951 5
2096 1 25.103 11.0744 34.7883 5
2097 1 25.2558 12.1872 36.8683 1
2098 1 25.7589 13.227 33.8811 1
2099 1 27.5104 12.161 35.5832 1
2100 1 27.7583 14.3187 34.0695 1
2101 1 -3.60499 5.59213 38.1759 5
2102 1 1.06751 5.94058 38.0747 5
2103 1 1.18223 5.78189 40.4983 5
2104 1 4.02982 5.55869 39.8513 5
2105 1 1.80424 7.82902 39.2431 5
2106 1 4.28026 7.76371 38.7984 5
2107 1 5.50006 6.8463 40.9113 5
2108 1 7.79985 7.09375 39.5676 5
2109 1 6.39553 9.04308 39.8547 5
2110 1 8.28928 9.21049 38.2815 5
2111 1 9.8392 8.24448 39.7829 5
2112 1 10.5698 9.51484 36.6175 5
2113 1 10.6081 10.4195 38.9927 5
2114 1 12.6302 10.6346 37.4831 1
2115 1 14.4854 9.74938 39.0949 5
2116 1 16.5669 9.84345 37.9324 5
2117 1 15.0677 12.0823 38.3505 1
2118 1 16.9128 11.9744 36.9215 5
2119 1 20.8303 10.9253 37.271 5
2120 1 18.5692 9.86672 36.7446 5
2121 1 19.144 13.2188 37.3204 5
2122 1 21.4373 13.2275 36.2902 5
2123 1 23.0342 12.1065 38.0468 1
2124 1 25.509 13.3302 39.0589 5
2125 1 23.7227 14.3055 37.096 5
2126 1 25.9884 14.281 35.8604 1
2127 1 27.5844 14.772 39.7708 5
2128 1 29.378 13.513 36.0257 1
2129 1 28.0039 15.2503 36.6079 5
2130 1 30.1015 15.5591 34.9571 5
2131 1 26.8048 13.6695 2.21089 5
2132 1 29.6031 14.379 38.5228 5
2133 1 30.2088 16.4057 37.4481 5
2134 1 32.7775 16.6694 36.0823 5
2135 1 -2.94391 6.0595 42.5309 5
2136 1 -0.609241 5.72205 41.9565 5
2137 1 2.14475 5.52431 42.4719 5
2138 1 -2.51063 7.7358 39.3964 5
2139 1 -0.0804205 7.8142 40.534 5
2140 1 0.723641 7.83303 2.07828 5
2141 1 2.89014 7.49044 41.1364 5
2142 1 1.36514 9.67753 41.426 5
2143 1 3.3102 9.85904 39.6986 5
2144 1 4.7942 9.03281 41.6001 5
2145 1 7.92993 8.47876 41.5415 5
2146 1 6.85411 10.3698 42.3633 5
2147 1 8.37928 10.4776 40.5251 5
2148 1 10.2446 9.71053 41.9604 5
2149 1 12.4037 9.53314 40.8044 5
2150 1 10.728 12.0607 41.1922 5
2151 1 13.0765 11.559 39.9518 5
2152 1 16.3369 11.2424 40.0124 5
2153 1 18.8082 11.0763 38.7984 5
2154 1 14.8978 13.176 40.4416 1
2155 1 17.3323 13.1892 38.8563 1
2156 1 18.5113 12.3168 40.8733 1
2157 1 20.8432 12.2509 39.1464 1
2158 1 19.4478 14.2363 39.6005 5
2159 1 21.2125 14.4754 38.3564 5
2160 1 20.8971 13.0563 41.4126 1
2161 1 22.8699 13.4329 40.0343 5
2162 1 23.1273 14.4664 42.198 5
2163 1 26.1475 15.3997 37.947 1
2164 1 26.6509 12.3503 40.6797 5
2165 1 23.9841 16.463 41.7352 5
2166 1 27.9324 16.9674 38.6387 5
2167 1 48.4955 8.06091 3.06782 5
2168 1 -3.48966 8.14332 3.31868 5
2169 1 49.9363 7.3686 4.70534 5
2170 1 -1.58254 8.01991 42.2478 5
2171 1 -2.33569 9.9388 4.03287 5
2172 1 -0.450754 10.2427 2.41256 5
2173 1 0.401775 8.89495 4.32927 5
2174 1 2.63902 9.22176 2.55692 5
2175 1 1.60341 11.478 2.73749 5
2176 1 3.33669 11.0172 42.0942 5
2177 1 4.88751 10.3115 2.89291 5
2178 1 8.42417 9.4698 3.26606 1
2179 1 7.04433 11.7464 3.55742 1
2180 1 9.04092 11.9417 2.16263 1
2181 1 10.5809 10.6658 3.69231 1
2182 1 14.5 10.9932 41.7813 5
2183 1 11.1953 13.0658 2.70771 1
2184 1 13.0752 13.236 41.8919 5
2185 1 14.3687 11.9466 3.09503 5
2186 1 16.5194 12.014 42.4488 1
2187 1 15.2463 14.0458 42.6266 1
2188 1 17.5332 14.3599 41.0499 1
2189 1 14.5694 13.1384 5.35696 1
2190 1 18.8928 13.1798 2.33169 1
2191 1 19.5318 15.2271 42.0124 1
2192 1 21.6203 15.4041 40.5292 5
2193 1 44.9757 8.67326 2.88546 5
2194 1 45.9257 7.58081 7.84205 5
2195 1 47.9746 7.52411 6.23786 5
2196 1 49.3415 9.37743 7.31125 5
2197 1 -4.12774 9.21833 5.72285 5
2198 1 -2.84778 9.46701 7.72064 5
2199 1 -1.1383 9.3793 6.16589 5
2200 1 -0.906017 10.5543 8.34879 5
2201 1 1.09048 10.4139 6.54452 1
2202 1 -2.34602 12.3403 8.67275 5
2203 1 2.65919 10.2843 4.91153 5
2204 1 -0.457511 12.6199 6.57797 5
2205 1 5.21875 11.468 5.41104 5
2206 1 3.22475 11.7196 6.68303 1
2207 1 8.35591 10.4314 5.38577 5
2208 1 7.18167 12.9741 5.73646 1
2209 1 9.03505 12.7726 4.32423 1
2210 1 10.3719 11.9245 6.33601 1
2211 1 12.5997 11.8452 4.50895 5
2212 1 11.1729 14.0652 4.83639 1
2213 1 13.3072 14.0832 3.3324 1
2214 1 12.494 13.1595 6.80138 1
2215 1 15.2723 15.3443 4.17304 1
2216 1 17.2982 15.1203 2.59188 1
2217 1 40.9718 5.20775 11.7526 5
2218 1 41.6921 6.11027 8.24637 5
2219 1 43.0988 5.50536 10.1715 2
2220 1 -5.02015 9.03428 9.56231 5
2221 1 45.459 7.36531 13.0982 5
2222 1 -4.80136 11.2751 8.41767 5
2223 1 47.9243 9.17611 10.8197 5
2224 1 -3.08057 10.7406 9.92122 1
2225 1 46.3993 11.3878 11.0094 5
2226 1 -4.5429 12.8692 10.4477 5
2227 1 -0.909188 11.7942 10.6041 5
2228 1 1.27132 11.7025 8.45657 5
2229 1 -0.200955 13.9574 9.15359 5
2230 1 1.84587 13.7354 7.15365 1
2231 1 3.30386 12.8496 8.97928 5
2232 1 5.08675 12.871 7.24684 1
2233 1 7.36662 13.9074 7.9571 1
2234 1 9.26662 14.1559 6.50983 1
2235 1 40.5909 11.3821 9.7188 1
2236 1 48.4382 11.2373 9.69135 5
2237 1 -2.25215 15.9195 12.3352 5
2238 1 -2.82679 12.2183 11.8339 5
2239 1 49.1376 14.9784 10.1833 5
2240 1 -2.28294 14.0083 10.5889 5
2241 1 1.12633 12.9486 11.1343 5
2242 1 -0.105425 15.2332 11.533 5
2243 1 1.99249 14.9954 9.40193 5
2244 1 5.99903 6.23581 29.8294 5
2245 1 11.4013 3.425 24.5497 5
2246 1 10.8798 4.08005 34.9059 5
2247 1 8.94494 1.51417 29.7579 5
2248 1 14.5012 7.58092 26.5893 5
2249 1 4.38122 4.72868 29.4303 5
2250 1 3.25235 4.09529 33.0481 5
2251 1 7.5733 2.89252 27.8248 5
2252 1 7.01779 8.68046 29.319 5
2253 1 9.24514 4.41797 28.3868 5
2254 1 7.24211 5.45572 32.0476 5
2255 1 11.6751 5.17591 29.2399 5
2256 1 7.4081 3.97761 29.9753 5
2257 1 8.18607 7.51736 30.8807 2
2258 1 12.4634 6.9564 30.8834 2
2259 1 14.3 6.72669 29.5782 5
2260 1 13.394 8.84538 29.47 2
2261 1 16.2941 6.42761 27.6099 5
2262 1 16.7727 7.71572 30.1681 5
2263 1 18.5517 13.6053 30.1971 5
2264 1 22.6363 13.5006 27.9643 5
2265 1 0.927592 4.08437 33.8266 1
2266 1 -0.470876 6.01869 33.696 1
2267 1 1.78574 5.7245 32.4604 1
2268 1 3.12338 5.61535 35.0482 5
2269 1 5.37976 4.0025 31.6607 5
2270 1 4.09573 6.04004 31.563 1
2271 1 6.39773 13.4321 30.8494 5
2272 1 8.30558 7.15921 33.3248 5
2273 1 9.52225 5.14446 30.6761 2
2274 1 10.3079 7.12468 32.1259 2
2275 1 13.4082 10.1476 31.5519 5
2276 1 12.5692 8.00832 33.1869 1
2277 1 11.2481 9.12988 31.0058 2
2278 1 14.5829 9.41195 33.5405 5
2279 1 17.7522 11.4092 31.3527 5
2280 1 15.4726 11.4003 32.7098 5
2281 1 20.1001 13.0262 32.4362 5
2282 1 16.4684 13.5206 31.8082 5
2283 1 19.2534 15.8249 29.4453 5
2284 1 21.5996 12.2248 33.9882 5
2285 1 22.397 12.5966 31.248 5
2286 1 20.8045 13.6392 29.2557 5
2287 1 23.0798 14.6768 30.2154 1
2288 1 24.4883 13.7575 31.7961 5
2289 1 24.9849 16.303 30.8802 5
2290 1 29.2742 17.2296 30.0535 5
2291 1 31.3384 17.4027 28.4838 5
2292 1 -4.59198 4.65802 34.2458 5
2293 1 -2.77584 6.16732 35.1323 1
2294 1 -1.39236 5.49647 37.131 5
2295 1 0.898787 5.51624 35.7307 5
2296 1 -0.746782 7.55047 35.5693 2
2297 1 1.52661 7.27632 34.2977 5
2298 1 4.21924 8.0516 36.4589 5
2299 1 5.35742 5.74976 33.5598 5
2300 1 4.8146 9.37347 34.4375 5
2301 1 7.1877 9.66024 33.7784 5
2302 1 7.18366 10.3756 36.2212 5
2303 1 9.02345 9.27178 32.4745 2
2304 1 8.18922 12.3783 35.2079 5
2305 1 10.0971 12.3865 33.4053 5
2306 1 9.35515 10.5555 34.7486 1
2307 1 13.5322 11.2905 34.3634 5
2308 1 12.1925 13.7107 34.4905 5
2309 1 14.3942 13.623 33.2073 1
2310 1 15.4167 12.804 35.0154 5
2311 1 17.9957 12.7114 33.7372 5
2312 1 16.2195 14.9505 33.8413 1
2313 1 19.8428 13.9933 34.8417 5
2314 1 23.7331 13.1119 35.0936 5
2315 1 22.5594 14.0721 33.2615 5
2316 1 20.7721 16.1235 33.7533 5
2317 1 18.5191 14.8916 32.5674 1
2318 1 24.4815 15.1468 34.1311 1
2319 1 26.5297 15.141 32.1841 5
2320 1 25.342 17.5133 32.9432 1
2321 1 27.3451 17.2061 31.1879 5
2322 1 28.6933 16.1703 32.9211 1
2323 1 30.756 16.248 31.7552 1
2324 1 29.3866 18.5633 31.9905 1
2325 1 33.873 15.5919 37.753 5
2326 1 -4.19899 8.47378 35.1208 5
2327 1 -2.81768 7.66318 37.0194 2
2328 1 -1.8191 9.58047 35.6448 5
2329 1 -0.519408 7.80669 38.1056 5
2330 1 1.8452 7.51421 36.6103 5
2331 1 0.475348 9.42173 36.8497 1
2332 1 2.53956 9.59279 35.1561 5
2333 1 2.64724 9.69694 37.5391 5
2334 1 5.2369 10.1828 37.7699 5
2335 1 3.87627 12.0398 38.7454 5
2336 1 5.77683 12.4769 36.9816 5
2337 1 7.45506 11.5752 38.5596 5
2338 1 9.39928 11.5046 37.1125 1
2339 1 8.05787 13.7834 37.4419 5
2340 1 10.1976 13.7153 36.3457 5
2341 1 11.6009 12.7503 38.0359 1
2342 1 13.6072 12.767 36.485 1
2343 1 12.3066 15.136 36.6597 1
2344 1 14.2616 14.9041 35.2938 1
2345 1 15.6691 14.0405 37.0678 1
2346 1 17.6897 14.2169 35.5828 5
2347 1 16.3471 16.5251 35.9546 1
2348 1 18.4355 16.3958 34.7494 1
2349 1 19.8993 15.6572 36.6224 5
2350 1 22.3232 15.2835 35.3584 5
2351 1 20.9334 17.5464 35.5056 5
2352 1 23.1844 17.3525 34.4041 1
2353 1 24.5803 16.4101 36.1082 1
2354 1 26.5507 16.2962 34.5193 1
2355 1 25.3302 18.3956 35.122 1
2356 1 27.5344 18.4738 33.6431 1
2357 1 28.812 17.4939 35.4323 1
2358 1 30.9057 17.5285 34.0393 5
2359 1 29.6895 19.5801 34.611 1
2360 1 31.5597 19.7155 33.0571 1
2361 1 30.9743 18.6058 36.5561 1
2362 1 44.0405 5.57302 40.1306 5
2363 1 -5.13748 7.83818 38.6742 5
2364 1 -4.40447 7.82985 41.6326 5
2365 1 -1.70071 5.60243 39.5625 5
2366 1 -3.89063 9.67735 40.1735 5
2367 1 -1.88939 9.90901 38.151 5
2368 1 -1.46861 9.84553 40.7978 5
2369 1 0.513564 9.93979 39.2986 5
2370 1 -0.590277 12.0584 39.4058 1
2371 1 1.35148 11.7502 37.7365 5
2372 1 1.77718 11.8659 40.2315 2
2373 1 5.73654 11.1006 40.4297 5
2374 1 4.1947 13.1288 40.8271 5
2375 1 6.08222 13.4748 39.4777 5
2376 1 7.55572 12.6919 41.0029 5
2377 1 9.31127 12.969 39.3659 1
2378 1 8.07525 14.9874 39.6527 1
2379 1 10.1194 14.9273 38.27 1
2380 1 11.8443 13.9559 40.2026 1
2381 1 13.7082 14.1067 38.5613 1
2382 1 12.1955 15.8423 39.0032 5
2383 1 14.2872 16.2131 37.7652 5
2384 1 15.9311 15.2471 39.2654 1
2385 1 17.6703 15.4289 37.7415 5
2386 1 16.4237 17.5597 38.4094 1
2387 1 18.5251 17.44 37.0228 5
2388 1 20.3698 16.6604 38.7412 5
2389 1 22.7953 16.4568 37.6183 5
2390 1 21.0636 18.4346 37.9297 5
2391 1 23.3146 18.5112 36.5464 5
2392 1 24.7675 17.6035 38.4952 1
2393 1 26.6293 17.7127 36.8553 1
2394 1 25.5269 19.6443 37.223 1
2395 1 27.1649 19.844 35.8216 1
2396 1 26.2224 16.6785 40.0278 5
2397 1 26.6502 19.0583 39.3362 1
2398 1 27.4821 20.9843 38.4329 1
2399 1 44.0644 7.56383 41.4125 5
2400 1 44.2352 6.67024 3.76058 5
2401 1 46.4899 6.83162 2.95261 5
2402 1 46.6011 8.61076 4.76368 5
2403 1 48.9422 9.36597 41.3374 5
2404 1 48.2591 11.9273 3.71345 5
2405 1 -2.99547 10.1844 42.6608 5
2406 1 -4.55874 11.4212 4.50537 5
2407 1 -1.98049 12.2289 2.7377 5
2408 1 -0.265108 11.1999 4.62248 5
2409 1 -0.159075 12.0745 41.7002 2
2410 1 0.0788044 13.3323 3.14406 1
2411 1 2.18839 13.441 42.1059 5
2412 1 3.68073 12.0494 3.68731 5
2413 1 5.6356 12.691 42.6317 5
2414 1 3.98625 14.8905 42.8942 5
2415 1 6.01988 14.7969 41.2972 5
2416 1 7.46357 14.1592 2.55552 1
2417 1 9.5284 14 41.4426 1
2418 1 8.16059 16.0393 42.0213 1
2419 1 10.1997 16.2131 40.3831 1
2420 1 11.7907 15.0742 42.1665 1
2421 1 14.0499 15.22 40.6078 5
2422 1 12.3682 17.1558 40.9973 5
2423 1 14.6197 17.5 39.7782 5
2424 1 15.7186 16.2127 41.638 1
2425 1 18.097 16.467 40.0387 5
2426 1 16.9115 18.6385 40.6829 5
2427 1 18.7063 18.8947 39.1432 1
2428 1 20.1527 17.6361 40.8772 1
2429 1 22.4885 17.4717 39.6449 1
2430 1 20.93 19.5893 40.0573 1
2431 1 23.0465 19.5199 38.8025 5
2432 1 22.6386 18.7656 41.7382 1
2433 1 24.5755 18.6053 40.4801 1
2434 1 23.1782 21.0418 41.0194 1
2435 1 25.0687 20.9529 39.5152 5
2436 1 42.1898 9.38109 9.43395 5
2437 1 42.142 7.96149 7.10163 5
2438 1 43.8875 7.42319 9.24673 5
2439 1 48.8123 9.71693 4.83279 5
2440 1 42.5273 10.4079 6.04255 5
2441 1 46.5147 11.8429 5.18042 5
2442 1 48.7866 11.6588 6.32669 5
2443 1 -2.39704 11.3395 5.91109 5
2444 1 49.5945 13.6057 4.68603 5
2445 1 -2.00606 13.5468 4.92696 5
2446 1 -3.99133 12.8901 6.65564 5
2447 1 1.54582 12.5566 5.11652 1
2448 1 0.546192 14.628 5.38049 5
2449 1 2.52614 14.4934 3.84001 5
2450 1 3.92246 13.6329 5.36058 1
2451 1 5.65893 13.8212 3.92686 5
2452 1 4.39197 15.9751 4.41945 1
2453 1 6.19724 15.9845 2.7528 1
2454 1 7.81435 15.1264 4.79898 1
2455 1 9.61943 15.0141 3.1154 1
2456 1 8.25291 17.2146 3.49816 1
2457 1 10.3675 16.9447 2.11243 1
2458 1 11.9331 16.107 3.85396 1
2459 1 13.9594 16.1803 2.48827 1
2460 1 12.7258 18.334 2.74646 1
2461 1 14.6617 18.4391 41.8103 5
2462 1 16.3367 17.4167 2.85368 5
2463 1 18.4101 17.381 42.2664 5
2464 1 16.6475 19.8181 42.8946 5
2465 1 18.8834 19.9529 41.6237 5
2466 1 21.0891 21.1104 42.2393 1
2467 1 40.4276 10.2899 7.51743 5
2468 1 44.6264 11.5387 6.55086 5
2469 1 42.6327 11.4776 8.00148 5
2470 1 47.6048 13.7933 6.28677 5
2471 1 44.0533 9.5096 7.83928 5
2472 1 46.6312 9.85795 6.70358 5
2473 1 45.695 15.6393 9.0417 5
2474 1 49.7565 14.8942 6.60482 5
2475 1 49.1351 13.3165 8.40812 1
2476 1 -1.84468 14.2564 7.39067 5
2477 1 0.275579 15.837 7.66708 5
2478 1 2.49584 15.9822 6.09209 1
2479 1 3.81151 14.9033 7.66801 1
2480 1 5.74134 14.8395 6.1461 1
2481 1 4.34548 17.1673 6.38743 1
2482 1 6.29997 17.1439 4.96513 1
2483 1 7.65727 16.1097 6.89854 1
2484 1 9.93021 16.133 5.36337 1
2485 1 8.4218 18.2542 5.73834 1
2486 1 10.7458 18.2864 4.26414 1
2487 1 11.9934 17.3863 6.34802 5
2488 1 13.9752 17.5951 4.57372 5
2489 1 12.4131 19.654 4.80703 1
2490 1 14.5078 19.8539 3.39166 5
2491 1 42.8444 14.9827 9.47005 5
2492 1 47.0521 11.8689 7.80705 5
2493 1 44.0921 12.2197 12.1783 5
2494 1 44.2789 9.80824 10.2869 5
2495 1 48.0227 10.8511 12.535 5
2496 1 46.9315 15.4786 11.4378 5
2497 1 -4.0176 14.4761 8.48418 5
2498 1 -1.7303 15.9675 9.45745 5
2499 1 49.6635 17.1444 8.29855 5
2500 1 2.30851 17.0184 8.14218 1
2501 1 0.438151 16.917 9.75768 5
2502 1 5.75041 16.1387 8.06038 1
2503 1 4.32608 18.2692 8.4811 1
2504 1 6.3673 18.273 7.10738 1
2505 1 10.8157 19.2847 6.47479 1
2506 1 48.3672 13.1598 11.5458 5
2507 1 46.094 13.4032 12.7028 5
2508 1 49.9085 13.3991 15.2615 5
2509 1 -3.77612 16.4314 10.1459 5
2510 1 49.2333 16.6071 12.2456 5
2511 1 1.12589 20.6116 10.7323 5
2512 1 2.94414 4.9101 24.7894 5
2513 1 4.69122 3.04704 26.6855 5
2514 1 7.59569 5.49414 24.0585 5
2515 1 6.84255 3.26289 25.4123 5
2516 1 10.2201 7.19187 29.5202 5
2517 1 8.79336 8.49669 27.6744 5
2518 1 12.5386 6.99449 25.4688 5
2519 1 3.12051 8.78504 27.2216 5
2520 1 2.43151 7.70828 31.1532 5
2521 1 3.00951 6.62128 28.9331 5
2522 1 5.55642 7.01095 27.6262 5
2523 1 -0.117141 6.69447 27.8562 5
2524 1 5.40956 9.41073 27.6495 5
2525 1 8.06718 6.20812 28.7799 5
2526 1 10.1964 6.69457 27.078 5
2527 1 9.71595 11.7843 28.9461 2
2528 1 10.9389 9.53148 28.5724 5
2529 1 12.2325 11.4701 30.129 2
2530 1 12.5771 7.20009 27.9584 5
2531 1 12.972 13.5838 29.1443 2
2532 1 14.4195 12.7658 31.0247 1
2533 1 16.4666 12.5611 29.4471 5
2534 1 17.5192 14.6884 28.2975 5
2535 1 -3.6716 9.50809 26.8152 5
2536 1 -4.89538 7.08296 28.1112 5
2537 1 -3.87156 6.43852 30.6449 5
2538 1 0.726244 6.34702 30.2218 5
2539 1 49.0414 7.12707 31.5673 5
2540 1 -0.660342 8.77032 30.199 5
2541 1 0.133851 8.04172 32.4124 5
2542 1 4.78953 8.33379 30.0296 5
2543 1 2.15452 9.28116 32.7569 5
2544 1 6.88925 9.77908 31.3765 5
2545 1 6.32992 7.74499 32.3573 5
2546 1 9.02569 9.46189 29.9795 2
2547 1 4.17641 9.34951 32.1941 5
2548 1 7.78921 11.7699 30.165 5
2549 1 10.1312 11.1699 31.3058 2
2550 1 10.8974 13.4407 30.6264 2
2551 1 13.0683 14.502 31.2539 1
2552 1 15.6284 10.4312 30.3707 5
2553 1 12.3368 12.2535 32.3145 5
2554 1 15.1371 14.5415 29.6797 1
2555 1 15.5532 17.9065 31.0001 5
2556 1 17.4362 15.6026 30.7403 1
2557 1 20.763 14.8505 31.3686 1
2558 1 21.7093 15.6555 28.1957 5
2559 1 20.4431 19.0714 30.7722 1
2560 1 18.0191 17.7463 29.9924 5
2561 1 23.5309 16.9321 29.1642 1
2562 1 28.1904 18.3852 28.1279 5
2563 1 25.4941 16.988 27.3014 5
2564 1 25.9233 18.1703 29.6913 5
2565 1 -4.03739 6.83891 32.9745 5
2566 1 50.0288 9.24704 32.9166 2
2567 1 -3.3738 9.16161 29.2925 5
2568 1 -3.11424 8.97279 31.6185 5
2569 1 -1.84363 8.01365 33.6523 5
2570 1 0.994186 10.3788 30.9305 5
2571 1 1.34611 8.38086 28.8081 5
2572 1 0.164236 9.332 34.464 2
2573 1 3.81705 7.47304 33.6212 5
2574 1 3.17177 11.5744 31.4789 5
2575 1 3.40984 11.4358 33.8461 5
2576 1 5.807 11.6947 34.7093 5
2577 1 7.65127 11.7306 32.7317 5
2578 1 6.4673 13.6497 33.3686 5
2579 1 8.57914 13.6445 31.67 5
2580 1 8.71432 14.5192 34.1934 5
2581 1 10.887 14.5922 32.7048 1
2582 1 9.26363 16.963 33.0502 1
2583 1 11.5749 16.8509 31.8647 1
2584 1 12.9876 15.8553 33.4972 1
2585 1 15.1913 15.7438 32.0152 1
2586 1 13.6695 17.9813 32.5339 1
2587 1 19.5845 16.8186 31.6894 1
2588 1 17.3388 17.1124 32.8753 5
2589 1 21.6342 16.7786 30.3261 1
2590 1 18.3082 19.0594 32.0305 5
2591 1 23.6331 18.1492 31.3464 1
2592 1 21.4367 18.1764 32.6059 1
2593 1 22.8702 16.0076 32.3197 1
2594 1 22.4505 20.3312 31.4481 1
2595 1 24.4092 20.0344 30.2117 1
2596 1 26.0824 19.6084 32.0038 1
2597 1 28.1794 19.4725 30.2983 5
2598 1 26.6496 21.627 30.5656 5
2599 1 46.395 7.72582 35.1422 5
2600 1 48.9235 8.60596 36.7439 5
2601 1 47.8051 6.3659 36.7886 5
2602 1 48.9743 7.37295 34.1613 5
2603 1 50.0462 10.7273 35.4622 1
2604 1 -3.26312 10.6757 33.9597 5
2605 1 -4.1235 9.78966 37.4473 5
2606 1 -1.06496 10.0504 32.3096 5
2607 1 -0.917945 11.6546 34.5778 2
2608 1 1.05688 11.4471 32.9232 2
2609 1 1.21082 11.7185 35.2092 1
2610 1 3.55049 11.5423 36.2049 5
2611 1 2.64738 13.4617 36.6331 5
2612 1 4.33313 13.4237 35.0269 5
2613 1 4.59484 14.5669 37.0428 5
2614 1 6.51111 14.4241 35.6356 5
2615 1 5.52465 16.7873 35.9628 1
2616 1 7.0883 16.5996 34.4066 1
2617 1 9.00222 15.8336 36.2073 5
2618 1 10.9067 15.7949 34.7854 1
2619 1 9.53548 18.0127 35.266 1
2620 1 11.6077 18.1217 34.1179 1
2621 1 13.2846 17.1844 35.7684 1
2622 1 14.9952 17.3454 34.1121 1
2623 1 13.881 19.5081 34.6221 1
2624 1 16.1894 19.2883 32.993 5
2625 1 17.3685 18.54 35.027 1
2626 1 19.5392 18.4298 33.9269 1
2627 1 17.8786 20.5776 34.447 5
2628 1 20.2798 20.4979 32.7068 5
2629 1 21.6312 19.8882 34.6218 5
2630 1 23.88 19.5095 33.4435 1
2631 1 22.3276 21.7044 33.4764 1
2632 1 24.5223 21.5772 32.3788 1
2633 1 25.8307 20.5336 34.1555 1
2634 1 28.2787 20.7322 32.8524 1
2635 1 46.2486 6.04849 40.8947 5
2636 1 46.2339 8.68288 37.7257 5
2637 1 44.6837 9.02315 39.8107 5
2638 1 47.743 10.6298 36.8873 5
2639 1 47.6933 7.91513 39.6804 5
2640 1 48.972 10.0064 38.8818 5
2641 1 -4.71503 11.8251 39.9307 5
2642 1 -2.85026 12.0468 38.4642 5
2643 1 -2.789 11.8475 41.0293 5
2644 1 -0.794425 11.7711 37.0156 1
2645 1 -1.63144 14.0731 39.5923 5
2646 1 0.349775 13.9998 38.2025 5
2647 1 0.814224 14.2955 40.5681 2
2648 1 2.68596 14.2031 38.8264 5
2649 1 1.34127 16.3635 39.1576 5
2650 1 3.35652 16.834 37.4605 5
2651 1 4.57921 15.9481 39.4743 5
2652 1 6.53708 15.8366 37.934 5
2653 1 5.32671 17.9057 38.3562 1
2654 1 7.52229 17.8888 37.0357 5
2655 1 8.8442 16.8108 38.4824 5
2656 1 11.0894 16.9381 37.1456 5
2657 1 9.7382 19.0779 37.5774 1
2658 1 11.7524 19.4053 36.1305 1
2659 1 13.071 18.5132 37.8561 5
2660 1 15.2219 18.4159 36.4763 1
2661 1 13.6193 20.6921 36.7194 1
2662 1 15.7908 20.7088 35.5312 1
2663 1 17.3174 19.6418 37.291 1
2664 1 19.4852 19.5557 36.1856 1
2665 1 17.9746 21.8046 36.4102 1
2666 1 20.0796 21.8425 34.7777 5
2667 1 21.448 20.9116 36.7795 5
2668 1 23.9724 20.5675 35.539 5
2669 1 20.1991 22.8364 37.2658 1
2670 1 22.4212 22.9703 35.6906 1
2671 1 23.5213 21.6707 37.6837 5
2672 1 26.1126 22.1145 36.5987 5
2673 1 42.7138 9.35404 41.497 5
2674 1 42.8746 10.5975 2.82924 5
2675 1 46.8378 8.48357 41.8147 5
2676 1 44.7282 10.4076 41.8885 5
2677 1 47.0334 10.2106 40.2866 5
2678 1 47.1367 10.0886 2.51456 5
2679 1 49.9744 11.2583 42.8723 5
2680 1 47.9354 12.163 41.8386 5
2681 1 -4.07501 13.7877 41.3236 5
2682 1 -3.68135 14.0012 3.14656 5
2683 1 -1.29401 14.0994 41.8344 5
2684 1 -2.69228 15.9289 42.5574 5
2685 1 -0.972805 16.1032 40.6159 2
2686 1 0.840227 15.4752 42.6926 1
2687 1 2.82821 15.5381 40.8486 5
2688 1 1.12072 17.5671 41.2202 1
2689 1 3.1385 17.6881 39.9691 1
2690 1 5.066 16.885 41.7034 1
2691 1 6.80025 17.0528 40.2021 1
2692 1 5.35859 18.959 40.4933 1
2693 1 7.46557 19.1821 38.9255 1
2694 1 8.92361 17.9659 41.0737 1
2695 1 10.9245 18.3091 39.3974 5
2696 1 9.63186 20.421 39.9582 5
2697 1 11.8257 20.3263 38.3357 1
2698 1 13.069 19.6249 40.4825 1
2699 1 15.0659 19.6828 38.7565 1
2700 1 13.7624 21.6489 39.3007 5
2701 1 15.8819 21.9987 37.6445 1
2702 1 17.1906 20.7824 39.5559 1
2703 1 19.3754 20.8577 38.2873 1
2704 1 15.8748 23.0066 40.156 5
2705 1 17.8191 23.19 38.6747 1
2706 1 19.5368 22.1436 40.2476 1
2707 1 21.7601 21.8451 39.1987 1
2708 1 20.3646 24.1026 39.3484 5
2709 1 23.9767 23.0576 39.8164 5
2710 1 40.8959 12.1881 5.91915 5
2711 1 40.8838 11.8474 41.8987 5
2712 1 43.3279 12.5225 41.9304 5
2713 1 42.5434 8.69767 4.36235 5
2714 1 41.8874 14.3273 41.7161 5
2715 1 44.7614 10.3327 4.63211 5
2716 1 45.2667 11.9576 2.97883 5
2717 1 -4.8181 15.9557 41.4085 5
2718 1 49.1207 14.1004 2.25051 5
2719 1 -4.69678 16.0284 3.23307 5
2720 1 -3.51318 15.0673 5.62535 5
2721 1 -1.34971 15.1603 3.58513 5
2722 1 -2.39353 17.2755 3.98929 5
2723 1 -0.596809 17.2186 2.22703 1
2724 1 0.866873 16.6104 4.22055 5
2725 1 2.7151 16.6614 2.68642 1
2726 1 1.17561 18.9257 2.71665 5
2727 1 3.29351 19.1472 42.0972 1
2728 1 4.71194 18.2008 3.05378 1
2729 1 6.95131 18.1573 42.5994 1
2730 1 5.33062 20.4275 42.667 1
2731 1 7.46094 19.8422 41.158 5
2732 1 9.28581 19.2357 2.6329 1
2733 1 11.033 19.256 41.8068 1
2734 1 9.39875 21.2965 42.1858 5
2735 1 11.6468 21.6141 40.5524 5
2736 1 12.9891 20.4956 42.4351 5
2737 1 15.4649 20.9345 41.2563 5
2738 1 11.2649 23.0144 43.055 5
2739 1 13.3681 22.7841 41.849 5
2740 1 15.2698 22.1156 2.62279 5
2741 1 17.4995 22.3252 41.8834 1
2742 1 16.0853 24.4305 42.0688 5
2743 1 18.1366 24.4748 40.7792 5
2744 1 19.6886 23.2543 42.4256 1
2745 1 21.9157 23.2379 41.232 1
2746 1 18.5129 25.7127 42.5853 5
2747 1 20.6486 25.264 41.5348 5
2748 1 40.3673 17.3798 3.30451 5
2749 1 45.2514 13.9628 5.18144 5
2750 1 46.6026 14.2495 3.47502 5
2751 1 43.3178 12.266 4.49207 5
2752 1 45.6986 13.9297 7.54319 5
2753 1 48.0668 16.0635 4.92345 5
2754 1 48.0171 15.5389 8.08078 5
2755 1 -4.60147 17.0495 5.48925 2
2756 1 -3.31357 16.456 7.39868 5
2757 1 -1.25646 16.0069 5.82077 5
2758 1 -2.59749 18.4563 6.04295 5
2759 1 -0.573078 18.6563 4.47205 5
2760 1 0.730268 17.7036 6.35312 5
2761 1 2.84585 18.0372 4.80564 1
2762 1 1.44869 19.8226 5.10845 1
2763 1 3.5657 20.4792 3.4566 1
2764 1 4.85085 19.1863 5.3361 1
2765 1 6.89345 19.2705 4.01533 1
2766 1 5.64608 21.3882 4.5741 1
2767 1 7.62332 21.29 2.98753 1
2768 1 9.06503 20.2033 4.99622 1
2769 1 11.1637 20.5724 3.19047 5
2770 1 7.5738 22.562 5.15489 5
2771 1 9.49673 22.4458 3.65343 1
2772 1 9.99816 23.7376 5.74061 5
2773 1 13.0982 22.0485 3.86451 5
2774 1 11.8503 23.9732 4.47628 5
2775 1 17.7963 23.282 3.1968 1
2776 1 14.4133 25.5446 5.22392 5
2777 1 19.7063 24.3864 3.90821 5
2778 1 43.9886 16.1737 7.30457 5
2779 1 41.7074 17.1059 9.93584 5
2780 1 44.758 14.2714 10.8649 5
2781 1 45.9652 17.6806 8.02919 5
2782 1 48.1913 17.8584 6.4603 5
2783 1 48.307 19.2085 8.35567 5
2784 1 -1.29495 18.0479 8.1567 5
2785 1 -3.43578 18.6947 8.5184 5
2786 1 -0.439891 19.8485 6.40272 5
2787 1 0.881789 18.9072 8.35582 5
2788 1 2.76967 19.0916 6.92473 1
2789 1 -0.953763 19.7941 9.60576 5
2790 1 3.56425 21.2473 6.13549 1
2791 1 5.17219 20.49 7.79896 1
2792 1 7.09901 20.4464 6.195 1
2793 1 5.70593 22.6805 6.49471 1
2794 1 4.3167 24.8944 6.98818 5
2795 1 9.4351 21.7056 6.95724 1
2796 1 11.0096 21.7608 5.4017 1
2797 1 5.94036 23.7009 9.04573 5
2798 1 8.01977 24.2421 7.06906 5
2799 1 42.7578 14.4183 12.1989 5
2800 1 46.1807 18.8549 10.2873 5
2801 1 45.7136 20.0522 15.8953 5
2802 1 48.2072 18.7807 12.3972 5
2803 1 43.2499 16.4202 11.5546 5
2804 1 -4.8551 20.6948 8.47611 5
2805 1 -5.04705 18.5161 10.6032 5
2806 1 -3.15788 19.993 10.5361 5
2807 1 -3.16306 22.434 8.99644 5
2808 1 3.73009 22.7388 8.21 5
2809 1 7.19628 21.6432 8.27447 1
2810 1 5.19424 21.5926 9.91985 5
2811 1 3.72598 23.8958 10.3464 5
2812 1 48.3445 20.2761 10.6504 5
2813 1 -3.77774 17.9982 12.9536 5
2814 1 5.51953 5.38992 25.6232 5
2815 1 3.51074 5.13265 27.0447 5
2816 1 7.95769 5.61944 26.5251 5
2817 1 10.0486 5.61279 24.673 5
2818 1 -2.92404 7.05894 24.2841 5
2819 1 -2.78861 6.91102 26.6468 5
2820 1 3.99402 7.24157 25.7833 5
2821 1 0.587697 9.07308 26.6341 5
2822 1 1.72894 6.99803 24.4465 5
2823 1 5.12481 9.21813 24.92 5
2824 1 9.38237 3.60133 26.0003 5
2825 1 2.47449 8.5649 22.8142 5
2826 1 6.07944 10.9518 23.3224 5
2827 1 7.77074 10.4761 28.087 5
2828 1 7.68194 9.46233 25.8632 5
2829 1 8.14305 12.646 26.9714 5
2830 1 10.7501 13.8442 27.7565 5
2831 1 11.8493 15.9687 26.5695 5
2832 1 13.7165 15.5068 27.7797 5
2833 1 47.6561 7.9206 29.8031 5
2834 1 47.8464 11.6507 28.5772 5
2835 1 49.2616 9.40775 28.3163 5
2836 1 -1.26959 8.81573 27.9813 5
2837 1 49.9631 11.4382 26.9274 1
2838 1 2.29741 8.98191 25.146 5
2839 1 3.18697 10.1212 29.5214 5
2840 1 3.76265 10.8762 26.2443 5
2841 1 5.46331 11.4315 32.2535 5
2842 1 3.72335 11.0008 23.9831 5
2843 1 5.71082 11.0983 29.6205 5
2844 1 6.08675 12.986 28.4806 5
2845 1 4.12281 13.2277 30.2161 5
2846 1 7.07042 14.9849 27.5171 5
2847 1 11.559 15.4722 29.7123 5
2848 1 8.55496 13.8587 29.3268 2
2849 1 7.73547 18.1931 28.5163 2
2850 1 14.4999 17.7419 26.9763 5
2851 1 13.7468 16.6063 29.9025 1
2852 1 15.9371 16.7596 28.7316 1
2853 1 12.3607 17.9974 28.3487 5
2854 1 15.4806 19.7035 26.0721 2
2855 1 14.6152 19.01 28.9726 1
2856 1 16.8008 19.1239 28.0855 1
2857 1 15.4509 21.3187 28.3068 1
2858 1 19.1523 19.9145 28.9052 1
2859 1 44.4261 10.2535 31.5933 5
2860 1 46.5255 10.1755 29.6434 5
2861 1 47.6891 9.22849 32.0148 5
2862 1 49.7098 9.44531 30.7132 5
2863 1 -2.7625 11.2918 28.2647 1
2864 1 -0.860836 11.1498 26.6515 1
2865 1 -4.26437 11.2438 32.1236 2
2866 1 -0.482486 10.9623 28.8989 5
2867 1 -3.80448 13.368 30.747 2
2868 1 -0.359824 13.7982 33.0352 2
2869 1 -2.34692 12.368 32.6085 1
2870 1 1.69756 12.2242 29.5988 1
2871 1 1.90426 13.7399 31.6207 2
2872 1 2.64417 14.3525 28.3321 1
2873 1 4.90136 15.1969 31.3805 5
2874 1 5.66331 17.8758 29.8983 5
2875 1 3.52781 17.5595 29.2617 5
2876 1 7.25051 15.9484 29.8167 5
2877 1 7.25219 15.7731 32.1657 5
2878 1 9.39497 15.8784 30.9289 2
2879 1 7.85461 17.9205 31.076 2
2880 1 10.1967 17.777 29.9166 2
2881 1 10.1598 18.9452 31.968 1
2882 1 12.4927 18.7529 30.5887 5
2883 1 10.9329 21.0051 30.6473 5
2884 1 13.2781 21.1824 29.6603 5
2885 1 14.4991 19.9767 31.6555 5
2886 1 16.6286 19.9984 30.2682 5
2887 1 15.6017 22.1339 30.7893 5
2888 1 17.4315 22.1031 29.2418 1
2889 1 18.6927 21.1197 30.964 5
2890 1 20.9575 21.3049 29.5506 5
2891 1 19.7625 23.5494 29.8963 5
2892 1 23.9297 23.5613 26.9663 1
2893 1 23.1728 22.3531 30.1514 1
2894 1 25.2128 22.4181 28.7186 5
2895 1 47.9539 9.56288 34.6138 5
2896 1 42.2694 9.89792 32.8298 5
2897 1 46.4946 11.2917 32.5791 5
2898 1 46.4786 11.3466 35.044 5
2899 1 48.7053 11.4533 33.4589 2
2900 1 48.5097 12.8623 35.7315 1
2901 1 -4.39783 12.7187 34.2848 1
2902 1 -3.2243 11.7804 36.1528 2
2903 1 -2.56883 11.3467 30.6178 5
2904 1 -2.11201 13.8671 34.7263 2
2905 1 2.01505 13.8197 34.2094 1
2906 1 0.0383151 13.7057 35.6548 1
2907 1 4.18539 13.3785 32.6179 5
2908 1 0.736551 15.7608 34.3499 1
2909 1 2.94602 15.5958 32.9594 1
2910 1 3.09308 15.7591 35.4056 2
2911 1 5.13506 15.5934 33.8898 5
2912 1 3.92559 17.6753 34.1872 5
2913 1 5.97012 17.8793 32.649 5
2914 1 6.04139 18.8822 35.0769 1
2915 1 8.01976 19.0164 33.5811 1
2916 1 6.89272 21.057 33.644 1
2917 1 8.88037 20.9848 32.232 5
2918 1 10.2833 20.181 34.107 1
2919 1 12.3466 20.0759 32.8594 5
2920 1 10.9655 22.6668 33.181 5
2921 1 12.8063 22.1379 31.7761 5
2922 1 14.5508 21.6116 33.4569 5
2923 1 16.8378 21.4474 32.4966 5
2924 1 15.6669 23.7422 32.6696 5
2925 1 17.5568 23.4264 31.1789 5
2926 1 19.2787 22.7091 32.5977 5
2927 1 21.3046 22.6489 31.5727 5
2928 1 20.0077 24.6554 32.0581 5
2929 1 21.3663 23.8052 33.7937 5
2930 1 43.1912 9.73365 37.8954 5
2931 1 43.9122 11.7903 36.4014 5
2932 1 41.7487 12.0864 37.9333 5
2933 1 46.448 12.7427 37.3067 5
2934 1 47.989 12.2784 39.4213 5
2935 1 49.7847 11.893 37.5784 5
2936 1 48.6208 14.0465 37.9549 2
2937 1 -4.4495 14.0613 36.1381 2
2938 1 -4.15799 13.9629 38.6742 5
2939 1 -2.14301 13.9289 37.1776 1
2940 1 -3.41485 15.8722 37.5355 1
2941 1 -1.2959 15.7735 35.9433 1
2942 1 -1.09406 16.065 38.251 1
2943 1 1.04027 15.6754 36.8096 5
2944 1 -0.228177 17.8499 36.8248 5
2945 1 1.82006 17.8445 35.6573 2
2946 1 2.11197 18.6564 37.8812 5
2947 1 3.77079 18.8855 36.291 1
2948 1 2.55953 20.9067 36.7141 1
2949 1 4.43247 21.1975 35.2788 1
2950 1 5.88186 20.0668 37.2706 1
2951 1 8.18345 20.0828 35.8735 1
2952 1 6.62712 21.8887 36.2459 5
2953 1 8.8519 22.3291 34.5872 1
2954 1 10.2072 21.3501 36.368 1
2955 1 12.38 21.7356 34.8334 1
2956 1 10.9921 23.5574 35.4241 1
2957 1 13.0688 23.8155 33.8448 5
2958 1 14.5268 22.9653 35.8655 1
2959 1 16.6766 22.7858 34.375 5
2960 1 15.1393 25.0256 34.6805 5
2961 1 17.979 24.564 33.3079 5
2962 1 16.6714 23.9855 36.7086 1
2963 1 18.6704 23.7584 35.247 5
2964 1 17.3963 26.1415 35.1962 5
2965 1 40.013 10.4464 37.3527 5
2966 1 40.9752 10.1486 39.5248 5
2967 1 45.5368 11.0048 38.5778 5
2968 1 41.7312 12.8647 39.9177 5
2969 1 44.3438 13.4194 38.4314 5
2970 1 45.6837 12.2509 41.0192 5
2971 1 48.7173 14.2681 40.6091 5
2972 1 46.4807 14.3049 39.4905 5
2973 1 49.7227 16.056 39.1495 5
2974 1 -4.2047 18.1003 39.8026 1
2975 1 -3.15284 15.8495 39.9731 5
2976 1 -3.54677 19.8987 38.7197 5
2977 1 -2.46167 17.9832 38.4946 5
2978 1 -2.14739 18.1753 41.004 2
2979 1 -0.128291 18.2696 39.1567 5
2980 1 -1.26938 20.2357 39.8816 5
2981 1 0.772868 20.7899 38.3467 5
2982 1 1.85607 20.0563 40.3005 5
2983 1 3.8976 19.9707 38.6739 1
2984 1 2.54287 22.0211 39.1473 1
2985 1 4.63941 22.1506 37.6412 5
2986 1 6.27394 21.176 39.5319 5
2987 1 7.96536 21.3057 38.092 1
2988 1 6.78398 23.491 38.3383 5
2989 1 8.86933 23.119 36.8625 1
2990 1 10.0857 22.6443 38.8138 1
2991 1 11.9299 22.6204 37.3135 1
2992 1 10.815 24.8377 37.6693 1
2993 1 12.7001 25.0661 36.2548 1
2994 1 12.3047 23.8425 39.6147 5
2995 1 14.0402 23.8219 38.052 1
2996 1 13.1982 26.3123 38.2634 1
2997 1 15.1293 26.0004 36.8296 1
2998 1 16.4644 25.1516 38.8015 1
2999 1 18.7672 25.1803 37.3841 1
3000 1 17.3163 27.2799 37.5735 5
3001 1 39.3112 13.5835 42.3725 5
3002 1 41.2147 13.0419 3.19763 5
3003 1 43.1967 11.0741 40.0242 5
3004 1 40.1189 15.8029 42.4315 5
3005 1 44.3936 14.6087 41.0199 5
3006 1 44.246 14.0902 2.79557 5
3007 1 46.6774 14.3025 41.754 5
3008 1 45.325 16.2976 2.23956 5
3009 1 47.3145 16.315 40.6566 5
3010 1 48.9309 18.0619 41.5621 5
3011 1 -3.83699 17.8677 42.6803 5
3012 1 49.6274 19.9546 42.7272 5
3013 1 -3.57142 20.3422 41.523 5
3014 1 -2.1387 19.5216 2.71128 5
3015 1 -0.313378 19.5017 41.7888 5
3016 1 -1.25368 21.5805 41.9474 5
3017 1 0.433294 22.1553 40.4648 5
3018 1 1.89719 21.549 42.4817 5
3019 1 3.87059 21.3951 40.9167 1
3020 1 2.55265 23.3687 41.1324 5
3021 1 4.62653 23.2002 39.8029 1
3022 1 6.09888 22.3739 41.5602 5
3023 1 8.01555 22.7154 40.1751 5
3024 1 8.22584 23.5442 42.4504 5
3025 1 8.78212 24.843 39.0321 5
3026 1 10.0255 24.9099 2.55181 5
3027 1 10.4082 23.987 40.8251 5
3028 1 9.12079 26.1125 41.2998 5
3029 1 10.8621 26.0377 39.7555 5
3030 1 12.6631 24.9095 41.9463 5
3031 1 14.5738 25.4169 40.1506 5
3032 1 14.6971 26.4452 42.2696 1
3033 1 15.3651 27.6352 39.2412 5
3034 1 16.7015 26.4727 40.8743 1
3035 1 18.7014 26.2505 39.3827 5
3036 1 41.3237 14.4661 5.33763 5
3037 1 42.5545 18.7344 4.35924 5
3038 1 42.5071 16.0884 2.98778 5
3039 1 44.2634 15.7426 4.62495 5
3040 1 48.9198 17.9679 3.8929 5
3041 1 48.0694 16.1572 2.24602 5
3042 1 47.2381 18.3288 2.29511 5
3043 1 46.2478 17.199 4.19367 5
3044 1 -4.05729 19.0691 4.19225 5
3045 1 48.7448 20.0434 4.72099 5
3046 1 -4.03312 21.7505 3.03234 5
3047 1 -2.32735 20.8403 5.04199 5
3048 1 -0.254456 21.1085 3.41218 5
3049 1 -1.77352 22.867 3.84423 5
3050 1 0.301297 23.1993 42.7529 5
3051 1 2.16024 22.3875 4.10551 5
3052 1 4.09036 22.6123 2.50145 5
3053 1 0.366995 24.1897 4.14981 5
3054 1 2.7674 24.9511 2.60522 5
3055 1 4.10692 23.5226 4.49431 5
3056 1 6.30341 23.4469 3.26921 1
3057 1 4.75105 25.6652 3.68287 5
3058 1 6.66999 25.8548 2.14036 5
3059 1 8.25385 24.5881 4.24483 5
3060 1 14.1045 24.2681 3.21904 5
3061 1 12.5995 26.2036 3.46125 5
3062 1 11.2739 27.2168 42.3604 5
3063 1 15.046 27.8337 3.85317 1
3064 1 16.2591 25.752 3.33756 1
3065 1 17.2572 27.8342 42.9167 1
3066 1 15.2482 28.8284 41.177 5
3067 1 17.392 28.7243 4.36689 1
3068 1 18.6211 26.7055 4.21875 5
3069 1 42.1696 18.1311 7.22697 5
3070 1 46.3478 15.975 6.61345 5
3071 1 40.5589 18.8407 5.33781 5
3072 1 44.6567 20.5734 4.65525 5
3073 1 47.5684 17.1322 9.80764 5
3074 1 50.2605 19.2088 6.79453 5
3075 1 46.4603 19.5784 6.30659 5
3076 1 -4.56336 21.2967 5.66157 5
3077 1 1.40548 21.2744 7.44764 5
3078 1 0.0657361 21.9547 5.5731 5
3079 1 -2.41102 20.6161 7.66406 5
3080 1 -2.75672 24.8351 8.02865 5
3081 1 -0.7318 22.3213 8.09492 5
3082 1 1.77624 23.3889 6.20014 5
3083 1 3.07072 28.0409 10.3627 5
3084 1 0.768113 26.4792 2.85263 5
3085 1 2.1067 24.7675 8.24065 5
3086 1 6.3139 24.9853 5.4382 5
3087 1 2.54628 25.628 5.27119 5
3088 1 7.22494 28.437 6.46437 1
3089 1 8.46003 26.2568 5.98397 5
3090 1 10.4183 25.9475 4.6554 5
3091 1 9.0376 28.4662 5.13778 5
3092 1 11.6013 28.314 4.01706 5
3093 1 13.1313 27.4461 5.66505 5
3094 1 44.3227 19.493 7.82142 5
3095 1 42.6807 20.8371 11.8735 5
3096 1 46.4828 20.7253 8.59602 5
3097 1 48.5112 22.4251 8.96258 5
3098 1 46.9145 23.1651 7.12897 5
3099 1 -2.48237 25.3296 12.7462 5
3100 1 -4.92498 22.9477 7.31421 5
3101 1 48.2967 24.144 10.6227 5
3102 1 -5.02781 24.5087 9.25249 5
3103 1 -0.275395 24.6012 8.99129 5
3104 1 6.35055 24.9097 10.8971 5
3105 1 3.0526 26.9499 7.5111 5
3106 1 3.9015 26.1368 9.24166 5
3107 1 8.69327 27.3172 8.28801 5
3108 1 -4.85286 21.7199 10.5748 5
3109 1 45.215 24.176 11.1473 5
3110 1 -1.6116 27.1715 10.9542 5
3111 1 6.70822 28.7227 12.4052 5
3112 1 50.0299 6.3114 23.3268 5
3113 1 3.22567 8.26228 20.6047 5
3114 1 4.03372 6.59116 23.4281 5
3115 1 46.6601 7.08032 22.5363 5
3116 1 -1.07093 11.5028 24.3441 5
3117 1 1.21303 11.1733 25.2963 5
3118 1 -1.81329 9.34855 25.5583 5
3119 1 2.01774 13.076 23.624 5
3120 1 3.29928 14.8853 22.4015 5
3121 1 6.66208 7.33112 25.3563 5
3122 1 4.66612 13.8679 26.8022 5
3123 1 6.77585 13.8339 25.6325 5
3124 1 6.14771 11.4607 26.1676 5
3125 1 7.76276 15.991 24.3233 5
3126 1 9.16414 14.9025 26.0922 5
3127 1 46.7768 8.29112 24.9311 1
3128 1 -4.10899 13.447 28.3779 1
3129 1 45.7205 6.49138 26.3207 1
3130 1 -4.6719 13.3919 25.7842 1
3131 1 -2.53929 13.43 24.4539 5
3132 1 -1.9515 13.4126 26.7756 1
3133 1 0.389188 12.979 27.5731 2
3134 1 -1.20124 15.2751 25.3852 1
3135 1 0.292178 13.1856 25.1623 1
3136 1 4.08105 11.9855 28.1117 1
3137 1 0.180014 9.19027 24.1434 5
3138 1 1.2555 15.0334 26.2976 2
3139 1 1.74009 10.7584 27.6807 5
3140 1 2.59007 13.0543 26.3162 2
3141 1 5.46978 15.8997 25.8733 5
3142 1 5.76112 17.2306 27.657 5
3143 1 7.86079 17.0161 26.4358 1
3144 1 4.86965 15.2425 28.709 5
3145 1 9.46624 15.8275 28.4353 5
3146 1 8.8721 19.2881 25.2909 5
3147 1 12.1265 18.4125 25.2507 5
3148 1 10.1835 17.8283 27.21 5
3149 1 13.3395 20.4732 24.7444 5
3150 1 10.8813 20.0644 25.9643 2
3151 1 13.3424 19.9945 27.1249 5
3152 1 46.7404 9.70314 27.0105 5
3153 1 48.1414 11.3373 30.8374 5
3154 1 47.5766 11.7723 26.2803 5
3155 1 45.6206 7.91529 28.4387 2
3156 1 -4.74585 11.2843 29.356 1
3157 1 49.0568 13.2877 29.8237 1
3158 1 -1.69115 13.237 29.2969 2
3159 1 -2.99746 15.3591 29.4454 2
3160 1 -0.301578 12.5421 31.0804 1
3161 1 49.7584 15.4593 28.256 1
3162 1 -1.05642 15.2375 27.916 2
3163 1 -1.64887 14.6824 31.648 1
3164 1 0.381299 14.5197 29.7998 1
3165 1 -0.73788 16.5519 30.0919 1
3166 1 1.34554 16.3235 28.5977 1
3167 1 2.70765 15.568 30.3963 2
3168 1 3.21671 16.0356 26.8716 5
3169 1 2.11786 17.9758 27.2958 5
3170 1 6.75521 19.481 26.7441 5
3171 1 6.45377 20.0061 29.3638 2
3172 1 8.7315 20.3162 27.638 2
3173 1 5.10746 22.3062 29.2431 5
3174 1 9.51488 22.3979 26.5563 2
3175 1 8.73916 19.8611 30.0733 2
3176 1 10.8727 19.7331 28.4479 5
3177 1 9.49226 22.0562 29.1432 2
3178 1 11.7743 22.0987 27.7907 5
3179 1 11.5934 23.4485 30.0086 1
3180 1 13.9648 23.2793 28.6288 1
3181 1 12.4436 25.4098 29.1832 5
3182 1 14.692 25.3929 27.6482 5
3183 1 16.1402 24.2786 29.3354 5
3184 1 18.4604 24.5535 28.1464 5
3185 1 16.6747 26.601 28.7766 5
3186 1 45.2717 12.0126 30.2143 5
3187 1 42.301 9.30047 27.8216 1
3188 1 40.4103 11.373 33.6979 5
3189 1 47.3566 13.5297 31.1516 5
3190 1 47.2768 13.3637 33.4877 2
3191 1 49.4124 13.2626 32.2254 2
3192 1 47.9563 15.4936 32.3971 2
3193 1 49.9749 15.4856 31.0466 2
3194 1 49.1028 14.6558 34.3767 1
3195 1 -3.58356 14.8117 33.0152 1
3196 1 50.0152 16.5572 33.1418 1
3197 1 -3.06237 16.6848 31.6258 5
3198 1 -1.46784 16.1113 33.435 5
3199 1 0.583397 15.807 31.887 2
3200 1 -0.495294 18.1594 31.9568 5
3201 1 1.36384 17.8578 30.6222 2
3202 1 1.94472 17.7229 33.0531 1
3203 1 3.89064 17.3829 31.64 5
3204 1 2.38358 19.7088 31.8272 5
3205 1 4.27848 19.88 30.5141 5
3206 1 4.4621 20.0102 33.0985 5
3207 1 6.84077 19.8783 31.681 2
3208 1 5.10684 21.7823 31.6126 5
3209 1 7.24608 22.0697 30.5266 2
3210 1 7.43594 23.0864 32.6336 1
3211 1 9.62527 23.2834 31.3376 5
3212 1 8.05928 25.2972 31.7188 1
3213 1 10.318 25.4066 30.2 1
3214 1 11.5889 24.6321 32.0535 5
3215 1 14.1501 24.0308 30.9216 5
3216 1 12.2898 26.7286 31.0427 5
3217 1 14.5167 26.9622 29.9278 5
3218 1 15.9817 25.7387 31.3395 5
3219 1 18.2115 25.7306 30.4344 5
3220 1 40.5393 12.7288 35.8688 1
3221 1 44.9354 13.5822 34.7012 5
3222 1 42.4833 12.5634 34.3578 5
3223 1 45.135 13.4532 32.3969 5
3224 1 42.693 14.0409 36.6479 1
3225 1 47.2063 14.8255 35.6 5
3226 1 45.805 15.4982 33.5218 5
3227 1 47.8871 17.0652 34.5631 1
3228 1 49.5737 16.1876 36.823 2
3229 1 -3.55021 15.9234 35.0012 2
3230 1 -5.03826 17.9931 35.2153 2
3231 1 -2.94637 17.8917 33.6916 5
3232 1 -2.58922 18.0041 36.1544 1
3233 1 -0.516124 18.2106 34.4148 5
3234 1 -1.91041 20.2031 34.8432 1
3235 1 0.329982 19.9051 33.4923 1
3236 1 0.608575 19.9509 35.8387 5
3237 1 2.46784 20.1569 34.4187 5
3238 1 0.995996 22.3727 34.9902 5
3239 1 2.80996 22.3984 33.7036 5
3240 1 2.98856 23.2579 35.8354 5
3241 1 5.32186 23.1745 34.2416 5
3242 1 3.87111 25.2328 34.5543 5
3243 1 5.9848 25.2618 33.3514 5
3244 1 7.30226 24.2681 34.9921 5
3245 1 9.46875 24.4907 33.3327 1
3246 1 7.94104 26.6561 34.2211 5
3247 1 10.0782 26.61 32.6954 1
3248 1 11.6934 25.7356 34.3487 1
3249 1 13.5949 25.9209 32.8268 5
3250 1 12.1339 27.9492 33.5182 1
3251 1 14.2684 28.0584 32.0237 5
3252 1 15.6853 26.9235 33.6527 5
3253 1 39.2682 14.9886 36.1989 5
3254 1 37.3103 12.1024 41.5953 5
3255 1 40.6953 14.1662 37.878 5
3256 1 41.5146 16.3812 36.7236 5
3257 1 43.7421 15.8947 35.365 1
3258 1 42.8792 15.1364 38.6807 5
3259 1 45.1712 14.8096 36.8675 5
3260 1 43.9254 17.4493 37.4815 5
3261 1 46.0067 16.969 36.0371 5
3262 1 47.2103 16.029 37.9391 5
3263 1 45.6971 18.7656 38.783 5
3264 1 47.9015 18.5395 36.778 5
3265 1 -4.81601 18.1542 37.5733 1
3266 1 -3.4872 22.2539 37.3609 5
3267 1 -1.42857 19.9918 37.5581 5
3268 1 -3.95203 20.2844 36.3403 5
3269 1 -1.37044 22.0753 36.193 5
3270 1 -1.09222 22.449 38.4899 5
3271 1 1.05402 22.8786 37.3867 5
3272 1 -0.541441 24.8861 37.4446 5
3273 1 1.53634 25.1068 36.1059 5
3274 1 3.15156 24.3542 38.2938 1
3275 1 5.14835 24.4853 36.691 5
3276 1 5.21165 25.4885 38.9188 5
3277 1 5.73894 26.6691 35.5164 5
3278 1 7.22643 25.4854 36.783 5
3279 1 9.50518 25.3684 35.8361 5
3280 1 7.85568 27.6771 36.2389 5
3281 1 10.1736 27.785 34.7961 1
3282 1 11.4741 26.9624 36.5309 1
3283 1 13.6804 27.1939 35.0891 1
3284 1 11.7188 28.4086 38.849 5
3285 1 14.0754 31.027 35.9862 5
3286 1 13.8022 28.6349 37.0276 5
3287 1 16.0434 28.185 35.7262 5
3288 1 35.6535 14.907 39.3589 5
3289 1 37.7764 15.0631 38.2962 5
3290 1 37.803 14.4556 40.7044 5
3291 1 40.2066 14.4117 40.2488 5
3292 1 38.7436 18.6227 39.087 1
3293 1 42.1319 17.808 39.1603 5
3294 1 43.0209 16.4541 40.8695 5
3295 1 45.0749 16.2545 39.1853 5
3296 1 40.981 20.0097 39.8956 5
3297 1 45.3659 18.0257 41.0904 5
3298 1 44.3926 18.024 3.01915 5
3299 1 48.1677 18.0292 39.1131 5
3300 1 47.4354 20.9881 39.1005 5
3301 1 49.2908 20.3752 37.9282 5
3302 1 49.451 20.0458 40.2126 5
3303 1 -2.87426 22.2406 40.4928 5
3304 1 -4.93395 22.0508 39.2175 5
3305 1 -2.55721 24.2539 38.9504 5
3306 1 -1.21716 23.7433 41.0147 1
3307 1 0.964659 24.0373 39.3926 1
3308 1 -0.812811 25.8571 39.6293 5
3309 1 1.78936 26.0326 38.4171 5
3310 1 3.22836 25.7281 40.3677 5
3311 1 6.77515 24.6289 40.5917 5
3312 1 3.70024 27.6909 39.0115 1
3313 1 7.08092 26.7958 39.064 5
3314 1 5.04726 27.1079 40.8966 5
3315 1 9.54006 27.1687 37.8913 5
3316 1 7.29516 27.6435 41.4649 5
3317 1 7.84392 29.1542 38.4402 5
3318 1 9.77128 28.2492 40.2538 5
3319 1 13.274 27.0724 40.6578 5
3320 1 13.8629 29.7528 39.1703 5
3321 1 40.4249 18.0394 40.7591 5
3322 1 40.6509 19.6026 2.17607 5
3323 1 38.6077 18.1788 42.2767 2
3324 1 42.1683 18.1163 42.5258 5
3325 1 43.107 20.9249 2.67913 5
3326 1 45.1203 20.4762 40.7074 5
3327 1 45.8553 20.1503 2.72471 5
3328 1 47.3177 20.0584 41.5633 5
3329 1 45.0987 22.4859 3.38888 5
3330 1 46.4368 22.2884 41.9521 5
3331 1 48.2851 21.7202 2.86391 5
3332 1 49.5042 22.0779 41.5726 5
3333 1 -3.9192 23.4584 4.52198 5
3334 1 -4.65515 24.2944 40.2779 5
3335 1 -3.21966 23.5715 42.383 5
3336 1 0.801535 25.2591 41.6389 5
3337 1 3.03855 27.1725 42.2993 5
3338 1 -2.75928 25.8659 41.2634 5
3339 1 4.6646 24.4563 42.0388 5
3340 1 6.90399 27.0396 4.23492 5
3341 1 8.92297 27.0625 2.7183 5
3342 1 13.3797 28.4818 2.21251 1
3343 1 10.8402 31.3963 41.6157 5
3344 1 41.3131 22.2474 6.48633 5
3345 1 45.3596 23.8351 5.17472 1
3346 1 41.8235 24.5412 5.34089 5
3347 1 46.897 21.5776 4.93547 5
3348 1 48.7244 22.8935 5.05554 5
3349 1 -2.32032 22.6527 6.30463 5
3350 1 -0.517951 24.6591 6.67662 5
3351 1 -1.99785 25.1207 4.66234 5
3352 1 4.99324 26.8375 5.52529 5
3353 1 48.2062 21.1006 6.90856 5
3354 1 -4.29685 11.0357 18.8599 1
3355 1 0.264802 12.3164 20.3584 5
3356 1 49.3852 10.1416 22.1118 5
3357 1 47.6034 10.8312 23.9713 5
3358 1 -3.38703 10.7719 23.2501 5
3359 1 45.4874 10.8983 25.1449 5
3360 1 -4.9229 12.1176 21.1315 5
3361 1 -4.66119 13.1212 23.3652 5
3362 1 -0.670463 10.0057 19.869 5
3363 1 -1.08451 14.5458 20.4207 5
3364 1 -2.744 13.0022 22.1022 5
3365 1 -0.192465 13.4523 22.7397 5
3366 1 5.50502 14.944 23.5879 2
3367 1 1.17617 14.7703 21.4136 5
3368 1 3.43854 14.7689 24.8359 2
3369 1 44.5885 9.9844 28.6394 5
3370 1 42.8944 10.0318 24.5105 5
3371 1 42.5111 7.86863 25.5765 5
3372 1 49.7792 11.2779 24.4846 5
3373 1 49.2858 15.4236 23.6287 5
3374 1 -3.68647 15.4928 22.093 5
3375 1 -3.66169 15.4624 24.4936 1
3376 1 -1.34552 15.2968 23.1231 5
3377 1 -2.90989 17.6388 22.9474 5
3378 1 -0.729785 17.1921 21.7428 5
3379 1 -2.31695 17.4474 25.831 1
3380 1 1.0585 15.4206 23.721 5
3381 1 -0.418804 17.5042 24.0624 1
3382 1 5.34064 14.6638 21.0832 5
3383 1 1.97167 16.9365 25.0794 2
3384 1 4.10351 16.9113 23.4779 2
3385 1 2.94877 18.9627 23.7091 5
3386 1 5.82572 22.5434 23.732 5
3387 1 6.44156 18.1182 24.8192 5
3388 1 7.18059 20.2945 23.5319 5
3389 1 7.8884 22.6961 22.5891 1
3390 1 9.35943 21.3567 24.0985 1
3391 1 10.4873 23.6006 23.3894 1
3392 1 17.0903 24.0907 24.2749 5
3393 1 48.3576 13.3083 24.7308 5
3394 1 46.4802 13.7558 28.8515 5
3395 1 48.6372 13.5856 27.4321 1
3396 1 45.4271 11.9802 27.6927 5
3397 1 49.2798 15.6381 26.0385 1
3398 1 47.3146 15.4244 27.4269 1
3399 1 -3.29413 15.3101 27.0033 1
3400 1 -4.85836 17.4051 26.8967 1
3401 1 -1.24365 19.2681 26.9713 5
3402 1 -2.27844 17.3945 28.138 2
3403 1 0.0705987 17.1517 26.7873 2
3404 1 -1.19425 20.6383 29.1131 5
3405 1 0.734981 19.0579 25.4493 5
3406 1 0.178888 18.5303 28.7628 1
3407 1 4.30152 17.9027 26.0036 5
3408 1 2.93574 20.2124 26.4505 5
3409 1 5.04639 20.0005 24.886 5
3410 1 4.56145 19.4622 28.0502 5
3411 1 7.41946 21.614 25.7828 5
3412 1 5.25621 21.569 27.1584 5
3413 1 8.02039 23.7123 24.6931 5
3414 1 7.35846 22.2584 28.08 2
3415 1 10.1277 24.5791 25.7987 2
3416 1 8.11789 24.5636 26.998 5
3417 1 11.7733 29.2993 23.5117 5
3418 1 10.2873 24.3134 28.1711 2
3419 1 11.6158 22.5167 25.4744 2
3420 1 12.7459 24.3382 26.6474 2
3421 1 15.2293 27.9203 26.9172 5
3422 1 42.3867 10.3578 30.1663 2
3423 1 43.097 12.5136 31.9049 5
3424 1 43.0605 12.2403 28.9668 5
3425 1 43.7574 14.6662 30.267 5
3426 1 47.8177 15.7422 29.8169 5
3427 1 45.4365 16.0171 28.775 5
3428 1 48.1738 17.7698 28.5959 5
3429 1 48.5536 17.4913 31.02 5
3430 1 -4.30454 17.4788 29.6077 2
3431 1 49.5218 19.7544 29.6088 5
3432 1 -3.69517 19.3245 27.9173 5
3433 1 -4.24886 18.7023 31.8916 1
3434 1 -2.07556 18.5708 29.9961 5
3435 1 -3.45519 20.7531 30.3685 5
3436 1 0.820154 20.3361 27.4018 5
3437 1 -0.0160545 20.0918 31.0305 5
3438 1 2.01981 19.5625 29.1506 5
3439 1 0.622851 22.1597 30.0222 5
3440 1 2.69801 21.7195 28.3874 5
3441 1 2.81157 21.9353 31.1859 5
3442 1 5.92609 24.2175 28.5096 5
3443 1 3.73418 23.9985 29.9477 5
3444 1 11.1846 26.9062 24.5785 5
3445 1 5.99064 24.2429 30.9516 5
3446 1 8.2271 24.1738 29.4351 2
3447 1 9.07783 26.293 28.6177 2
3448 1 10.9161 26.3612 27.2159 2
3449 1 11.234 27.5456 29.1237 1
3450 1 13.1868 27.3991 27.9289 5
3451 1 11.809 29.6305 28.1593 5
3452 1 13.32 29.087 30.0103 5
3453 1 39.8388 14.6071 30.9775 5
3454 1 39.2747 13.5804 34.052 5
3455 1 41.1794 13.7846 32.5923 5
3456 1 40.0006 16.0355 32.7138 1
3457 1 42.0158 15.7926 31.2627 5
3458 1 43.3723 14.7959 32.9397 2
3459 1 45.8184 15.474 31.0329 5
3460 1 44.1951 16.877 32.0749 5
3461 1 45.6815 18.3165 30.1484 5
3462 1 46.3289 17.7815 32.6421 5
3463 1 48.761 18.9849 33.1241 1
3464 1 47.4243 19.7374 31.165 5
3465 1 49.758 20.8333 31.9279 1
3466 1 -3.93491 20.085 33.8679 2
3467 1 -2.13985 19.8274 32.4074 5
3468 1 -3.53747 22.2885 32.4227 5
3469 1 -1.59339 22.1432 31.2991 2
3470 1 -0.91006 21.9793 33.551 1
3471 1 0.952769 22.2136 32.4643 5
3472 1 -0.547678 24.0796 32.4141 5
3473 1 1.72648 23.9882 31.2152 1
3474 1 1.54969 24.3784 33.8255 5
3475 1 3.97751 24.0142 32.4602 5
3476 1 4.43423 27.3648 33.3474 5
3477 1 6.76946 26.5549 27.375 5
3478 1 6.89803 27.2526 32.0265 5
3479 1 9.01696 27.6274 30.6552 1
3480 1 9.69876 29.4951 29.4756 5
3481 1 11.1598 28.8248 31.5066 1
3482 1 10.6866 30.1521 33.7044 5
3483 1 15.4047 30.1369 31.217 5
3484 1 14.1704 29.1978 33.9234 5
3485 1 38.0626 15.9496 34.3393 5
3486 1 38.7447 17.4365 37.1283 5
3487 1 41.3718 14.9414 34.737 1
3488 1 40.3785 17.009 34.7629 5
3489 1 42.3434 16.9267 33.5315 1
3490 1 42.4326 18.2007 35.8182 5
3491 1 44.387 17.9413 34.2994 5
3492 1 43.2001 19.9561 34.1758 5
3493 1 45.2443 20.051 32.0325 5
3494 1 46.5393 19.1683 34.4062 5
3495 1 48.8771 20.2151 35.2095 5
3496 1 47.2635 21.06 33.2676 5
3497 1 49.4893 22.4412 33.9313 5
3498 1 44.7818 19.3413 36.1877 5
3499 1 -3.39064 22.2509 34.9352 1
3500 1 49.2986 22.5353 36.266 5
3501 1 0.165604 26.3066 33.8366 5
3502 1 -2.65752 24.2397 36.4019 5
3503 1 -0.595972 24.2268 35.1478 5
3504 1 6.9636 26.3307 29.7784 5
3505 1 2.29017 26.9531 34.8703 5
3506 1 3.58765 26.392 36.7083 1
3507 1 5.65715 27.8323 37.414 1
3508 1 6.46698 28.6052 34.0314 5
3509 1 12.1854 29.4998 35.27 1
3510 1 34.9266 18.0631 36.7972 5
3511 1 34.3701 17.104 39.5649 5
3512 1 38.9239 20.2862 41.1983 1
3513 1 41.3002 20.3069 36.0025 5
3514 1 41.3974 21.603 38.2851 1
3515 1 43.2705 19.8633 38.2045 5
3516 1 45.2946 21.529 34.5776 5
3517 1 43.0011 21.3451 40.0384 5
3518 1 45.2566 21.151 38.0459 5
3519 1 48.2903 23.2506 38.418 5
3520 1 46.8618 20.6884 36.297 5
3521 1 0.273639 27.0888 36.2286 5
3522 1 37.5952 20.9846 39.4297 1
3523 1 43.4566 19.1725 41.0383 5
3524 1 48.3146 11.0953 20.2135 1
3525 1 -3.59387 13.2297 17.6724 5
3526 1 -3.47657 14.5936 19.9192 5
3527 1 -2.34425 12.4362 19.656 5
3528 1 -0.558159 15.8224 16.9583 5
3529 1 2.56018 12.7458 20.9171 5
3530 1 46.271 12.8158 23.6697 5
3531 1 48.2562 12.661 22.351 5
3532 1 47.4002 14.7422 22.4497 5
3533 1 49.419 14.4318 21.0198 5
3534 1 49.8834 17.3482 21.9008 5
3535 1 -0.978745 16.7265 19.4184 5
3536 1 -3.16223 17.0833 20.5901 5
3537 1 1.62722 16.8886 20.134 5
3538 1 -1.59568 19.5501 24.2734 1
3539 1 1.78125 17.2237 22.336 5
3540 1 -2.11077 18.9021 19.4136 5
3541 1 2.57492 19.615 21.4277 5
3542 1 0.658808 19.4323 22.9156 5
3543 1 5.12986 18.9656 22.6272 2
3544 1 1.33605 21.6495 22.2038 5
3545 1 3.97249 21.1503 23.1214 5
3546 1 6.93982 23.4114 20.5523 2
3547 1 8.93879 24.7161 21.4213 1
3548 1 42.894 13.6421 22.8891 5
3549 1 45.1071 15.7645 26.3604 5
3550 1 44.8444 14.8943 23.9035 5
3551 1 46.1696 13.6897 26.3079 5
3552 1 42.6801 15.1058 24.9187 5
3553 1 47.2124 15.5857 24.893 5
3554 1 47.9614 17.6257 26.1611 5
3555 1 -4.89462 17.7089 24.3792 5
3556 1 48.7564 19.7397 24.5046 5
3557 1 -3.83196 19.9072 23.4728 5
3558 1 -3.74326 19.3869 25.6753 1
3559 1 -0.626485 21.2501 25.6383 2
3560 1 -0.335189 23.7922 22.1011 5
3561 1 -0.820434 21.6644 23.0158 5
3562 1 1.61996 21.2165 24.3235 5
3563 1 -0.47721 22.459 27.7318 5
3564 1 5.40809 25.4091 20.9926 2
3565 1 4.95207 23.3715 21.7968 5
3566 1 2.99471 23.081 23.2132 5
3567 1 3.80664 22.3243 25.2725 5
3568 1 4.52688 24.5725 24.2011 5
3569 1 6.86966 24.6028 22.8976 1
3570 1 5.96 23.6241 25.9673 5
3571 1 8.93499 25.7195 23.8184 5
3572 1 13.4314 26.2186 25.6448 2
3573 1 41.6046 12.1061 24.8672 5
3574 1 38.3781 15.7063 28.5927 5
3575 1 41.9359 13.5892 26.7021 5
3576 1 41.7618 14.7972 28.9432 5
3577 1 44.0918 13.8956 28.0642 5
3578 1 41.0833 16.9292 24.7523 5
3579 1 46.0013 17.9775 27.3729 5
3580 1 46.105 20.2169 28.9718 5
3581 1 49.0567 19.758 27.2248 5
3582 1 50.0406 21.4257 25.773 5
3583 1 -4.64899 21.3867 28.3064 5
3584 1 47.8521 21.6727 29.9161 5
3585 1 -2.74385 21.2074 26.978 5
3586 1 -1.63899 23.3176 25.759 5
3587 1 -2.73565 22.6724 28.943 1
3588 1 1.76493 22.48 26.3914 1
3589 1 1.60197 24.1872 28.3093 2
3590 1 3.81242 23.8308 27.1911 5
3591 1 7.55451 28.4007 28.6334 5
3592 1 8.88788 26.8287 26.1026 5
3593 1 11.7209 28.5791 26.2452 5
3594 1 37.1861 17.9752 29.3732 5
3595 1 38.6067 16.8686 31.0349 5
3596 1 40.3089 16.466 29.3329 5
3597 1 41.5171 17.9026 27.6726 5
3598 1 40.8672 17.8213 31.596 5
3599 1 43.1047 16.1565 27.4954 5
3600 1 45.7567 22.0613 31.0914 5
3601 1 43.2053 17.4154 29.8727 5
3602 1 48.2802 22.8896 32.0424 1
3603 1 -4.59864 22.8487 30.3939 5
3604 1 -0.482645 24.1094 29.4153 5
3605 1 38.6174 18.2792 33.2588 1
3606 1 43.1545 18.8168 32.1088 5
3607 1 -5.21056 16.5053 19.633 5
3608 1 -4.16795 18.4604 18.6357 5
3609 1 47.9713 16.5748 20.7007 5
3610 1 -1.82475 18.0483 17.1409 5
3611 1 -3.17255 20.8843 19.5568 5
3612 1 -0.57825 20.3657 18.7467 5
3613 1 0.183359 18.7969 20.4568 5
3614 1 3.29665 25.7268 19.9136 5
3615 1 43.5425 16.7577 23.1996 5
3616 1 45.4921 17.3355 24.6476 5
3617 1 -4.06091 19.4722 20.9629 5
3618 1 46.7211 19.7353 26.1007 5
3619 1 -3.17648 21.7572 22.0327 5
3620 1 2.52491 23.4659 20.7523 5
3621 1 40.2113 29.4061 15.5589 5
3622 1 42.0059 27.6601 15.226 5
3623 1 40.757 34.1537 12.6896 5
3624 1 42.6114 32.3458 12.7982 5
3625 1 41.4729 39.6567 12.2492 5
3626 1 43.034 37.5815 12.0562 5
3627 1 44.9219 39.2596 12.9355 5
3628 1 45.4297 41.2499 11.5809 5
3629 1 40.2973 27.2567 10.8555 1
3630 1 42.5138 27.1253 9.46161 5
3631 1 41.5793 26.6346 12.9738 5
3632 1 43.889 26.1904 11.1782 5
3633 1 49.0768 26.1151 11.7373 5
3634 1 -4.88606 25.7932 14.0809 5
3635 1 38.332 27.0054 12.2041 5
3636 1 40.3824 28.3863 13.2393 5
3637 1 41.309 30.4814 11.8309 5
3638 1 42.7541 28.3852 11.4197 5
3639 1 41.874 30.013 14.224 5
3640 1 43.8463 27.0824 13.2492 5
3641 1 43.6855 30.2517 13.0712 5
3642 1 48.4848 28.1622 11.6696 5
3643 1 45.7249 28.7585 13.5656 5
3644 1 49.2354 27.7855 13.6794 5
3645 1 49.9554 30.1164 12.6251 5
3646 1 -3.94423 27.6363 12.4692 5
3647 1 -1.60761 28.7499 12.9922 5
3648 1 37.3452 32.302 13.4856 5
3649 1 38.9706 36.2496 12.8787 5
3650 1 39.5186 32.2424 11.9186 5
3651 1 44.7006 32.4092 11.4634 5
3652 1 44.9201 35.6235 12.4003 5
3653 1 44.0529 33.884 13.901 5
3654 1 46.4683 33.4755 12.3503 5
3655 1 48.2142 31.8281 12.2009 5
3656 1 48.5497 34.9294 12.8524 5
3657 1 47.5239 30.4392 13.9397 5
3658 1 -4.46979 32.8054 12.2239 5
3659 1 -2.57551 31.1495 12.6237 5
3660 1 -2.98717 32.4171 14.5909 5
3661 1 0.526788 30.3402 13.5497 5
3662 1 41.847 34.8589 9.18585 5
3663 1 40.3185 36.6762 9.03856 5
3664 1 41.1889 36.3427 11.2911 5
3665 1 43.6954 39.6363 10.731 1
3666 1 43.5849 36.2904 9.76207 5
3667 1 45.3834 37.6131 10.8013 5
3668 1 47.0786 35.9144 10.8793 5
3669 1 47.5563 38.1274 9.44876 5
3670 1 -5.16128 36.6849 10.0336 5
3671 1 48.8795 37.0477 11.8372 5
3672 1 -4.48854 34.1782 14.545 5
3673 1 -3.94847 36.3586 12.6353 5
3674 1 -2.28337 34.348 12.7803 1
3675 1 -0.541527 36.0212 13.5463 1
3676 1 1.06139 34.1936 13.7924 5
3677 1 38.3833 1.73021 12.1684 1
3678 1 41.9838 41.8309 10.7272 1
3679 1 40.4408 2.01266 10.6511 1
3680 1 43.2169 41.1884 12.7661 5
3681 1 44.2399 41.7707 9.35067 1
3682 1 42.1977 40.0616 8.81189 1
3683 1 45.8793 40.1789 9.6249 1
3684 1 47.2244 39.3384 11.7218 1
3685 1 47.6033 41.3598 10.5541 5
3686 1 49.4982 39.309 10.4761 2
3687 1 49.097 41.108 12.3648 5
3688 1 -4.53594 38.7299 12.7023 5
3689 1 -3.80401 40.9069 11.5996 5
3690 1 -2.09265 37.9572 13.0457 5
3691 1 -0.16235 39.7818 13.8229 5
3692 1 44.5155 3.27954 10.0539 5
3693 1 43.8855 43.3776 11.2709 2
3694 1 41.3086 4.18263 9.48763 1
3695 1 46.1246 43.4474 10.1585 2
3696 1 46.7246 3.44909 11.376 5
3697 1 48.1612 1.37363 11.8628 5
3698 1 48.982 3.57391 10.1947 5
3699 1 -4.63603 43.1318 10.8171 5
3700 1 -4.77601 3.03044 12.3463 5
3701 1 -4.37687 42.5815 13.2684 5
3702 1 -2.47832 2.60219 11.5941 5
3703 1 -1.70699 42.2095 11.8376 5
3704 1 35.3797 22.7114 7.00757 5
3705 1 41.6014 23.5689 8.9089 1
3706 1 45.0851 22.6437 8.9526 5
3707 1 40.4597 25.6106 8.94671 5
3708 1 36.6329 26.9459 5.54688 5
3709 1 39.2233 28.0123 9.08482 5
3710 1 39.6117 23.6116 10.234 2
3711 1 38.7545 26.312 7.53344 5
3712 1 37.8401 24.2973 8.50791 5
3713 1 40.9287 27.8566 7.66336 5
3714 1 42.1548 25.6938 7.38098 5
3715 1 44.8647 26.8985 9.30067 5
3716 1 43.9502 24.8177 9.19825 2
3717 1 46.822 26.2803 10.7177 5
3718 1 42.9251 21.5113 8.55139 1
3719 1 48.8719 26.8087 9.36484 5
3720 1 -3.61986 26.2525 10.2753 5
3721 1 -1.30935 26.7854 8.79004 5
3722 1 39.7113 29.9352 7.60605 5
3723 1 39.5156 31.263 9.6706 5
3724 1 41.1477 29.3018 9.79937 5
3725 1 41.4834 31.2969 8.45255 5
3726 1 43.3077 29.1871 8.69111 5
3727 1 43.1908 31.0038 10.3722 5
3728 1 45.1959 28.2798 11.3072 5
3729 1 45.2492 30.4297 9.34442 5
3730 1 47.0377 28.5628 9.65248 5
3731 1 48.8833 30.3073 10.361 5
3732 1 -4.88654 28.5322 10.2933 5
3733 1 -4.21468 30.7408 8.00438 5
3734 1 -3.06952 28.581 8.62761 5
3735 1 -2.66107 29.5559 10.7209 5
3736 1 0.853644 26.6649 9.724 5
3737 1 -0.587755 28.9244 9.77213 5
3738 1 0.540222 28.4203 11.7378 5
3739 1 38.0052 34.0254 6.33588 5
3740 1 41.9385 33.306 6.84493 5
3741 1 40.0776 33.3444 8.37294 1
3742 1 41.519 32.6511 10.511 1
3743 1 44.0278 34.9465 7.38146 5
3744 1 43.4761 33.1077 8.8675 5
3745 1 45.4975 34.2922 9.82945 5
3746 1 46.1589 30.3722 11.6556 5
3747 1 46.8106 32.3816 10.2572 5
3748 1 49.314 32.4038 9.0034 5
3749 1 48.8369 34.1399 10.7193 5
3750 1 -4.02233 31.0973 10.3967 5
3751 1 -3.48856 32.7901 8.87232 5
3752 1 -1.88065 30.5663 8.8915 5
3753 1 -2.13162 32.8317 11.0968 5
3754 1 -0.638849 30.6483 11.4528 5
3755 1 0.0894397 32.6918 9.84875 5
3756 1 1.78727 30.157 10.3913 5
3757 1 -0.86283 32.4731 13.2379 5
3758 1 3.77644 31.7872 10.9973 1
3759 1 6.9198 30.6363 11.0083 5
3760 1 38.3519 35.175 8.83061 5
3761 1 40.4548 38.6395 7.78489 5
3762 1 40.2947 35.2039 7.09429 5
3763 1 40.0508 40.1632 10.0434 5
3764 1 43.1152 34.4951 11.4365 5
3765 1 41.9293 38.107 10.0607 5
3766 1 45.746 36.4402 8.3393 1
3767 1 44.1206 38.6123 8.6123 1
3768 1 47.642 34.2137 8.67235 5
3769 1 48.3546 36.7528 7.73834 5
3770 1 -5.04242 34.7104 8.6856 5
3771 1 -4.7709 38.6916 8.44432 5
3772 1 -3.68588 34.6403 10.5884 5
3773 1 -3.00064 36.6031 8.98195 5
3774 1 -1.28054 34.5552 9.41508 5
3775 1 -1.6925 36.3768 10.9313 5
3776 1 -0.228959 34.6593 11.7071 5
3777 1 0.995 36.2472 10.4608 5
3778 1 2.12003 34.0395 11.0676 5
3779 1 2.03751 36.0671 12.5914 5
3780 1 3.7741 33.345 12.7819 5
3781 1 4.28899 35.2122 11.4535 5
3782 1 6.36675 33.5297 13.8618 5
3783 1 5.99819 34.9084 16.297 5
3784 1 41.1991 2.25143 7.40107 5
3785 1 42.9887 42.1166 7.53277 5
3786 1 43.1671 2.34847 6.29881 5
3787 1 42.4961 38.753 6.51673 5
3788 1 44.6921 40.6097 7.36018 5
3789 1 46.4124 38.8359 7.51651 5
3790 1 46.8291 41.771 8.25519 5
3791 1 48.268 39.948 8.37746 5
3792 1 49.7412 2.09866 6.01634 5
3793 1 -3.50767 40.6447 7.03959 5
3794 1 -5.01918 41.2981 9.06282 5
3795 1 -3.08707 38.4685 10.6033 5
3796 1 -2.21917 40.3043 8.92667 5
3797 1 -1.0098 38.3806 9.80047 5
3798 1 -1.25336 40.001 11.8325 5
3799 1 0.192335 37.8648 11.8814 1
3800 1 0.846699 39.5188 10.5081 5
3801 1 2.85168 37.7402 11.0418 5
3802 1 1.89626 39.2012 12.81 5
3803 1 3.53535 37.7895 14.0772 5
3804 1 5.19992 37.2055 10.9039 5
3805 1 6.73299 34.8451 10.782 5
3806 1 39.5512 4.60051 7.78459 5
3807 1 41.1758 4.42483 6.06883 5
3808 1 45.3036 3.96755 7.34315 5
3809 1 43.0125 4.16101 8.13872 5
3810 1 44.9827 1.92328 8.14897 5
3811 1 46.931 3.57683 8.86374 5
3812 1 47.1529 1.81599 6.9575 5
3813 1 47.3381 5.35949 10.1477 5
3814 1 48.583 43.4485 8.89779 5
3815 1 49.2834 3.44413 7.84017 5
3816 1 -4.03023 43.1849 8.06321 5
3817 1 -4.0561 3.06663 9.29546 5
3818 1 -2.54628 42.9974 9.60793 5
3819 1 -1.31716 2.76415 8.4602 5
3820 1 -0.351531 41.5214 10.0308 5
3821 1 -0.470654 2.036 10.344 5
3822 1 0.615829 41.7263 12.6062 5
3823 1 1.92753 42.3479 10.7633 5
3824 1 4.68788 39.49 12.221 5
3825 1 39.0198 3.96641 11.0466 5
3826 1 45.3522 5.51939 9.05308 5
3827 1 -2.47835 7.45521 5.29984 5
3828 1 39.442 21.749 2.64152 5
3829 1 36.3815 25.7852 3.17464 1
3830 1 39.8506 23.7793 41.8229 5
3831 1 38.1114 24.9883 5.20173 5
3832 1 39.3991 22.7421 5.02128 5
3833 1 40.3886 24.6197 3.35898 5
3834 1 41.1465 20.7277 4.45662 5
3835 1 45.1171 25.4524 7.21926 5
3836 1 39.8212 24.2295 7.18541 5
3837 1 43.4371 23.6646 6.99857 5
3838 1 40.6091 28.3685 3.52113 5
3839 1 38.5305 26.9103 3.79753 5
3840 1 38.8184 28.3926 6.31264 5
3841 1 36.0053 26.2119 8.89191 5
3842 1 42.2293 27.6207 5.63274 5
3843 1 43.8401 25.7844 5.35231 5
3844 1 43.7584 27.3296 7.21282 5
3845 1 46.5593 24.5009 8.98186 5
3846 1 45.8311 27.1869 5.74359 1
3847 1 47.206 25.1372 5.58976 5
3848 1 47.1769 26.7474 7.79125 5
3849 1 48.8382 24.9796 7.41026 5
3850 1 48.8328 26.967 6.07547 5
3851 1 -4.24559 26.644 7.84177 5
3852 1 39.6345 31.8566 42.3883 5
3853 1 42.5812 29.871 4.19179 5
3854 1 42.1126 31.6845 5.28695 5
3855 1 42.2057 29.8344 6.71337 5
3856 1 44.4644 31.2855 4.55435 5
3857 1 44.1567 29.3053 5.83353 5
3858 1 44.132 30.9836 7.33911 5
3859 1 45.7661 28.9139 7.80882 5
3860 1 46.0787 31.0913 6.18377 5
3861 1 47.451 28.7619 6.28682 5
3862 1 47.3831 30.896 8.41859 5
3863 1 49.0451 29.0751 8.12561 5
3864 1 -3.95095 29.0443 6.29051 5
3865 1 -1.99463 26.8769 6.38786 5
3866 1 -0.842513 28.9047 7.34977 5
3867 1 0.741913 26.5402 7.37958 5
3868 1 1.20469 28.547 6.38266 5
3869 1 1.50401 28.6157 8.55309 5
3870 1 5.14853 28.1435 8.03777 5
3871 1 40.3769 33.9062 5.14689 5
3872 1 41.1929 36.0184 4.00776 5
3873 1 42.7951 33.8111 4.67073 5
3874 1 42.7804 35.8842 5.67262 5
3875 1 44.3708 32.9418 6.1882 5
3876 1 45.0164 35.0934 4.76547 5
3877 1 46.4183 33.1962 5.04901 5
3878 1 46.4021 35.0517 6.7947 5
3879 1 45.8814 32.9119 7.91541 5
3880 1 48.0952 32.7111 6.87003 5
3881 1 49.12 30.7144 6.36127 5
3882 1 -4.51841 33.2551 6.76714 5
3883 1 -2.40943 30.9494 6.65876 5
3884 1 -2.31893 32.892 5.58118 5
3885 1 0.011032 30.986 6.07743 5
3886 1 -1.03098 32.5839 7.66646 5
3887 1 0.601159 30.8189 8.33637 5
3888 1 2.35166 30.7832 6.81073 5
3889 1 3.70042 29.8042 8.78582 5
3890 1 2.33319 32.3213 9.13012 5
3891 1 5.0274 29.4128 10.7639 5
3892 1 5.32842 31.618 9.44966 5
3893 1 9.37053 29.4135 7.38961 1
3894 1 7.69182 31.4592 7.75383 5
3895 1 40.4546 37.3554 5.83166 5
3896 1 41.1355 39.6022 4.50133 5
3897 1 43.0267 37.5325 4.17766 5
3898 1 42.5766 37.0182 8.02935 5
3899 1 44.7302 37.2745 6.42105 5
3900 1 45.4761 37.4085 3.6023 5
3901 1 47.3204 35.5697 4.33757 5
3902 1 46.8223 37.5386 5.56544 5
3903 1 48.8301 34.9188 6.20852 5
3904 1 49.4977 37.2122 5.2813 5
3905 1 -3.56276 35.1218 5.42369 5
3906 1 -4.23573 36.5005 7.18926 5
3907 1 -2.54151 34.6531 7.5842 5
3908 1 -1.94263 36.7149 6.21501 5
3909 1 -0.513711 34.8442 6.39264 5
3910 1 -0.583285 36.5036 8.21325 5
3911 1 1.14118 34.7278 8.80042 5
3912 1 1.46211 36.6541 7.03232 2
3913 1 2.90108 34.621 7.27 5
3914 1 3.01764 36.056 9.27821 5
3915 1 4.42538 33.8576 9.62556 5
3916 1 6.87906 33.4855 8.70113 5
3917 1 5.64518 32.8712 11.6213 5
3918 1 9.91792 33.1661 8.43937 5
3919 1 11.6135 32.22 10.4313 1
3920 1 39.4604 41.1649 4.16838 5
3921 1 40.938 40.8331 6.37565 5
3922 1 41.4773 41.4859 3.00206 1
3923 1 43.2164 39.6358 3.08687 5
3924 1 43.1832 40.9573 5.37229 5
3925 1 45.3306 39.5122 5.06212 5
3926 1 45.7688 41.894 4.11652 5
3927 1 47.8582 39.5829 4.66613 5
3928 1 47.1156 41.0027 6.19405 5
3929 1 49.3088 39.6931 6.39967 5
3930 1 -5.0964 41.568 5.02302 5
3931 1 -3.58508 38.668 5.65227 5
3932 1 49.1001 42.0712 7.06535 5
3933 1 -2.34671 38.2715 7.75927 5
3934 1 -1.27439 40.4604 6.21304 5
3935 1 0.011477 38.4825 6.6275 5
3936 1 0.104595 40.3576 7.99155 5
3937 1 1.80136 38.1022 8.86336 5
3938 1 2.42782 40.8607 8.46393 5
3939 1 4.18528 36.8319 7.28728 5
3940 1 4.29822 38.283 8.96792 5
3941 1 5.54401 35.9441 8.83845 5
3942 1 7.45245 37.3569 9.91093 5
3943 1 8.1183 32.5672 10.403 5
3944 1 11.1385 36.3459 9.70832 5
3945 1 16.1456 34.6107 11.7811 5
3946 1 8.77118 35.2581 9.44107 5
3947 1 41.6686 3.19138 4.18532 1
3948 1 39.7623 6.2908 6.22401 5
3949 1 43.8286 4.5935 5.10982 5
3950 1 41.7382 6.27359 5.05831 5
3951 1 43.4739 43.066 4.26077 5
3952 1 44.1839 6.02675 7.17741 5
3953 1 45.0404 42.5389 6.24143 5
3954 1 45.5608 2.66115 5.37745 5
3955 1 47.863 43.1159 4.79984 5
3956 1 45.9507 6.16463 5.52774 5
3957 1 47.7017 3.97342 5.72727 5
3958 1 -3.99279 3.73976 5.08468 5
3959 1 -2.94127 42.7138 5.97839 5
3960 1 -1.16274 5.14151 5.24217 5
3961 1 -1.31815 42.3752 7.76183 5
3962 1 0.290723 2.22228 6.614 5
3963 1 1.1103 42.1221 6.76426 5
3964 1 1.11714 43.4003 8.78847 5
3965 1 3.35712 40.0412 10.4137 5
3966 1 6.07904 39.4652 10.055 5
3967 1 7.95254 38.7279 11.8769 5
3968 1 40.7943 10.7928 4.04452 5
3969 1 40.181 8.08249 8.5135 5
3970 1 44.3573 8.0029 5.65679 5
3971 1 47.3346 5.60967 7.41233 2
3972 1 49.5518 5.10888 6.25684 5
3973 1 41.322 21.6422 41.644 5
3974 1 37.7957 22.3393 41.4515 1
3975 1 38.2217 18.4643 6.46119 5
3976 1 42.2373 24.9063 42.0516 5
3977 1 42.7962 20.4046 6.03577 5
3978 1 36.0665 24.2977 41.6078 1
3979 1 40.5439 25.8243 40.0514 2
3980 1 38.3589 24.6532 40.2554 5
3981 1 38.1126 25.5204 42.4808 5
3982 1 45.9988 23.2825 37.292 5
3983 1 43.788 24.4527 3.02639 5
3984 1 41.9699 23.0935 2.90181 5
3985 1 43.9295 22.5612 41.9149 5
3986 1 45.5469 24.332 42.1398 5
3987 1 47.2147 23.7949 3.23398 5
3988 1 40.355 26.3034 42.5761 5
3989 1 40.8098 28.4677 40.8627 5
3990 1 42.5335 26.7318 40.4948 5
3991 1 42.5182 27.8813 42.5125 5
3992 1 42.0224 26.2708 3.55326 5
3993 1 44.5424 28.1736 40.9734 5
3994 1 44.2057 26.3663 42.4306 1
3995 1 44.0226 27.6351 4.0061 5
3996 1 45.7529 25.6944 3.62119 1
3997 1 46.0792 27.7401 2.15798 1
3998 1 47.656 25.8722 42.7389 5
3999 1 47.5756 27.2924 4.05457 1
4000 1 49.0615 25.4771 3.80666 5
4001 1 -4.44696 25.1643 6.0421 5
4002 1 41.2822 29.8883 42.7962 5
4003 1 41.8398 32.1218 41.2341 5
4004 1 42.6934 30.0544 41.0354 5
4005 1 43.0446 31.7281 2.41448 5
4006 1 44.1882 29.5159 2.53209 5
4007 1 45.2499 31.6283 41.3035 5
4008 1 46.4366 29.6112 41.2305 5
4009 1 46.058 31.0993 2.68363 5
4010 1 45.9093 29.1912 4.11699 1
4011 1 47.7885 29.4977 2.75476 5
4012 1 49.7324 27.5268 2.85425 5
4013 1 49.5151 28.99 4.58926 5
4014 1 -3.16213 28.1208 42.1226 5
4015 1 -3.64814 29.5159 3.3498 5
4016 1 -3.74593 27.1427 4.93212 5
4017 1 -1.74381 28.938 5.29598 5
4018 1 0.0472921 26.3493 5.05561 5
4019 1 0.0432993 28.6413 4.16925 5
4020 1 3.53694 28.8498 5.97291 5
4021 1 6.29779 26.1089 7.65462 5
4022 1 40.4008 34.1997 41.5635 5
4023 1 39.7027 35.9776 42.8779 5
4024 1 41.513 33.7315 2.74746 5
4025 1 42.2324 35.7039 41.8618 5
4026 1 44.1799 33.8264 41.6951 5
4027 1 43.4569 35.5271 3.12489 5
4028 1 44.6256 33.2568 3.07232 5
4029 1 46.3939 33.7336 41.2736 5
4030 1 47.9363 31.6569 41.9712 5
4031 1 47.392 33.4664 2.89769 5
4032 1 47.6308 31.0095 4.50013 5
4033 1 49.9903 33.1967 42.469 5
4034 1 49.4086 31.0802 2.99701 5
4035 1 48.9629 32.9601 4.70572 5
4036 1 -4.19964 31.2796 5.01793 5
4037 1 -3.84437 33.347 3.68517 5
4038 1 -2.06879 31.0703 4.06712 5
4039 1 0.050106 32.8554 4.62836 5
4040 1 2.0665 30.3762 4.50956 5
4041 1 2.59706 32.7091 4.72679 5
4042 1 4.25296 31.1677 5.13257 5
4043 1 4.20431 32.6832 7.40434 5
4044 1 5.53508 30.4502 7.18667 5
4045 1 10.1601 31.7083 6.60825 1
4046 1 7.59558 30.5087 5.61594 5
4047 1 11.3871 29.6427 6.22732 5
4048 1 40.9599 36.1511 39.7299 5
4049 1 41.4505 37.8623 2.17517 5
4050 1 42.3207 38.1399 40.5613 5
4051 1 44.3341 36.0202 40.8812 5
4052 1 43.9765 37.6114 42.4265 5
4053 1 45.6086 35.3523 2.40672 5
4054 1 46.1682 37.517 41.9427 5
4055 1 48.167 35.4765 42.1166 5
4056 1 47.8476 37.5089 3.00853 5
4057 1 49.6227 35.4195 3.71065 5
4058 1 -4.90912 37.2046 2.63962 5
4059 1 -3.52809 35.0885 2.27515 5
4060 1 -2.83208 36.6836 3.99224 5
4061 1 -1.41324 34.9831 4.2536 5
4062 1 -0.984667 37.4962 2.49845 5
4063 1 0.762398 34.5623 3.343 5
4064 1 0.250527 36.9241 4.75117 5
4065 1 1.2846 33.0425 6.91048 5
4066 1 1.60867 34.9429 5.29759 5
4067 1 4.93344 33.4774 4.26037 5
4068 1 5.51532 34.7138 6.86327 5
4069 1 6.46078 32.4981 6.08265 5
4070 1 7.05147 34.8608 5.05813 5
4071 1 8.49032 33.5443 6.41559 5
4072 1 10.6933 35.1129 7.49864 5
4073 1 11.6131 31.1044 8.22546 1
4074 1 12.2987 33.0623 6.94149 5
4075 1 41.4934 2.34342 40.5241 5
4076 1 40.5587 39.8432 39.9658 5
4077 1 42.4331 1.72514 2.24004 1
4078 1 42.0793 40.2403 41.6966 5
4079 1 43.0086 42.3528 40.7583 5
4080 1 44.7167 39.9764 41.4531 5
4081 1 44.2031 41.7111 2.2394 5
4082 1 46.07 39.6785 2.76536 5
4083 1 46.3933 41.6538 41.9698 5
4084 1 48.5678 39.5742 42.7388 5
4085 1 48.2617 41.7429 2.85947 5
4086 1 49.8804 39.1203 3.88827 5
4087 1 -4.35611 41.1114 2.69493 5
4088 1 -3.04921 39.0147 3.09398 5
4089 1 -2.7335 41.1958 4.34029 5
4090 1 -1.34559 38.5371 4.63039 5
4091 1 0.983782 40.3769 5.40358 5
4092 1 1.38846 38.7543 3.38176 5
4093 1 2.47317 39.1734 6.83761 5
4094 1 2.7859 37.6747 5.14156 5
4095 1 4.6447 38.9919 6.10341 5
4096 1 6.30311 37.1132 5.7409 5
4097 1 6.226 38.0304 7.85272 5
4098 1 7.67137 35.8981 7.56087 5
4099 1 8.4907 38.2878 6.48207 5
4100 1 11.7645 37.3127 7.00791 5
4101 1 9.76714 37.4389 8.39951 5
4102 1 13.3132 36.8018 8.60125 5
4103 1 42.9955 3.71271 41.2747 5
4104 1 42.2475 4.90226 2.86117 5
4105 1 44.0016 3.19431 3.08057 5
4106 1 44.5009 5.29124 42.6878 5
4107 1 44.6908 1.82644 42.0204 5
4108 1 47.6143 4.37431 42.5792 5
4109 1 46.5045 2.07131 3.14969 5
4110 1 -3.73114 3.25382 2.47037 5
4111 1 49.2133 1.6992 42.595 5
4112 1 49.7867 3.97203 41.6484 5
4113 1 -2.22307 2.59819 4.85378 5
4114 1 48.9135 3.3649 3.80232 5
4115 1 -1.45517 43.2509 2.97464 5
4116 1 0.19371 2.69707 4.07049 5
4117 1 -0.428915 42.6778 4.97084 5
4118 1 2.77374 2.80553 5.17297 5
4119 1 3.29174 41.2746 6.33218 5
4120 1 2.81399 1.57154 7.07035 5
4121 1 4.76054 40.214 8.19212 5
4122 1 5.55148 42.5693 7.25037 5
4123 1 6.77451 40.2901 6.93664 1
4124 1 6.63546 41.4565 9.15741 5
4125 1 8.10806 39.3978 8.82178 1
4126 1 9.23668 41.3689 7.66979 1
4127 1 42.1245 4.18985 38.9735 5
4128 1 46.275 4.40773 3.93029 5
4129 1 48.4738 6.43289 41.3159 5
4130 1 48.1863 5.96445 4.44085 5
4131 1 0.421971 4.9382 3.37755 5
4132 1 37.0546 20.0404 42.8444 5
4133 1 35.2663 19.3449 38.875 5
4134 1 39.6481 22.1086 39.9517 1
4135 1 38.2238 22.9613 38.0907 1
4136 1 39.2163 20.6018 37.8915 1
4137 1 41.9082 23.4419 40.1791 1
4138 1 43.5272 21.5876 36.3064 5
4139 1 40.1897 24.0267 38.3501 5
4140 1 41.0826 25.4786 36.212 5
4141 1 43.5855 23.0286 38.2857 5
4142 1 42.524 25.155 38.2794 5
4143 1 46.5621 25.1059 38.5249 5
4144 1 44.6155 25.2049 36.7328 5
4145 1 43.9866 23.4693 34.6715 5
4146 1 44.2664 24.8896 40.1459 5
4147 1 45.5589 22.7702 40.0526 5
4148 1 48.3177 24.9043 36.6687 5
4149 1 49.5668 23.7855 42.9482 5
4150 1 39.6624 28.9133 38.7618 5
4151 1 41.6166 27.3219 38.3774 5
4152 1 41.8499 29.2745 36.9712 5
4153 1 43.3557 27.3232 36.7542 5
4154 1 43.1175 28.9498 38.8966 5
4155 1 45.2731 27.215 38.7177 5
4156 1 45.317 29.0209 36.9285 5
4157 1 46.84 26.8598 36.9082 5
4158 1 47.4165 28.4637 39.1726 5
4159 1 46.3966 26.4012 40.7033 5
4160 1 48.5496 26.2936 39.3116 5
4161 1 48.2127 24.1121 40.7222 5
4162 1 -3.75051 25.584 3.13007 5
4163 1 49.8702 26.3215 41.4986 5
4164 1 -1.0506 25.1109 2.47244 2
4165 1 39.1441 31.7161 38.0269 5
4166 1 41.3158 30.8783 39.0005 5
4167 1 42.6983 33.0003 37.4631 5
4168 1 43.8138 30.698 37.331 5
4169 1 43.6157 31.9388 39.3107 5
4170 1 45.2105 29.7574 39.1028 5
4171 1 47.1364 30.3788 37.6375 5
4172 1 49.0305 27.7145 37.3594 5
4173 1 48.4066 30.812 39.8119 5
4174 1 48.2037 27.8761 41.7192 5
4175 1 -4.32057 30.3134 38.61 5
4176 1 50.0314 28.5064 39.7827 5
4177 1 50.0004 29.4406 42.2163 5
4178 1 -0.858536 27.4725 41.8083 5
4179 1 -2.87007 29.8756 40.5957 5
4180 1 1.66484 29.1714 42.7548 5
4181 1 -1.70765 27.1843 3.21973 5
4182 1 2.44065 27.9701 3.77844 5
4183 1 4.00193 30.0372 3.07471 5
4184 1 5.52398 28.9961 4.7457 5
4185 1 42.2546 33.8021 35.1779 5
4186 1 41.5877 35.3989 37.555 5
4187 1 42.4187 34.2959 39.9095 5
4188 1 44.0978 35.0676 36.6476 1
4189 1 45.1951 32.8505 37.0697 5
4190 1 44.4754 34.1679 38.9528 5
4191 1 46.6238 32.2111 39.1383 5
4192 1 47.218 34.5058 38.7594 5
4193 1 49.0188 32.0341 38.0407 5
4194 1 48.7021 33.5924 40.2273 5
4195 1 -4.72143 31.8232 40.5789 5
4196 1 -4.24465 33.4927 38.9099 5
4197 1 -2.45567 31.8216 39.6171 5
4198 1 -2.85538 33.4919 41.4449 5
4199 1 -3.42381 31.4433 42.6513 5
4200 1 -0.926629 31.4964 41.5748 5
4201 1 1.48092 30.9787 41.209 5
4202 1 0.622247 31.2278 2.91388 5
4203 1 -1.52746 29.5491 2.30611 5
4204 1 7.09427 33.4936 3.17604 5
4205 1 5.77401 30.1473 41.8707 5
4206 1 6.38093 31.261 3.75741 5
4207 1 7.79668 29.244 2.89243 5
4208 1 10.0393 30.2577 4.23492 5
4209 1 12.1181 31.4984 5.01723 5
4210 1 13.6529 29.8053 4.58263 1
4211 1 42.6499 37.0524 36.1087 5
4212 1 41.9134 38.3985 38.1226 5
4213 1 43.3892 36.5584 38.7697 5
4214 1 44.4661 38.504 37.5762 5
4215 1 45.9859 36.4472 37.7936 5
4216 1 45.054 38.4565 39.8498 5
4217 1 46.7741 36.1524 40.0974 5
4218 1 47.6191 38.2048 38.757 5
4219 1 49.1834 35.9295 39.0537 5
4220 1 48.7966 37.6706 41.048 5
4221 1 -4.71231 35.1619 40.7732 5
4222 1 -4.1511 37.5028 40.1694 1
4223 1 -2.13003 35.5072 40.0565 5
4224 1 -2.94561 37.1239 42.0865 5
4225 1 -1.4976 33.1113 2.6497 5
4226 1 -0.849773 35.1787 42.4076 5
4227 1 1.07195 33.1213 42.1435 5
4228 1 4.10792 35.6601 5.40833 5
4229 1 3.09527 34.732 3.28725 5
4230 1 4.01005 36.3837 42.1347 5
4231 1 10.7809 32.5384 3.10255 1
4232 1 5.62759 35.676 3.34074 5
4233 1 8.65777 32.2685 4.4984 5
4234 1 9.38524 34.6433 3.86626 5
4235 1 12.7405 34.0598 4.25703 5
4236 1 10.6319 33.8818 5.49653 5
4237 1 13.6597 31.0622 6.60962 1
4238 1 14.2421 31.7372 3.29891 1
4239 1 39.6606 42.427 37.184 5
4240 1 43.2517 40.2366 37.1074 5
4241 1 41.5658 42.6069 38.8764 5
4242 1 43.1345 40.2981 39.5464 5
4243 1 44.1525 42.3992 37.881 5
4244 1 45.8299 40.407 38.4895 5
4245 1 45.3957 42.4176 39.8438 5
4246 1 47.3187 39.8146 40.6718 5
4247 1 47.7475 41.7952 39.5299 5
4248 1 49.6661 39.6865 39.5428 5
4249 1 49.3706 41.3064 41.3248 5
4250 1 -4.41916 39.2303 41.5885 1
4251 1 -2.00545 40.8344 42.1913 5
4252 1 -0.218145 39.3465 42.2237 5
4253 1 -0.499821 40.6985 3.70658 5
4254 1 1.47785 36.4565 2.2594 5
4255 1 1.97367 40.9385 2.4868 5
4256 1 2.9389 38.8059 42.2942 5
4257 1 3.22205 39.8358 4.1726 5
4258 1 4.66711 37.86 3.77137 5
4259 1 5.23281 40.0041 2.71788 5
4260 1 7.45646 36.9122 3.65278 5
4261 1 6.7126 39.0556 4.3806 5
4262 1 9.39705 35.8305 5.77424 5
4263 1 9.90659 37.8279 4.73887 5
4264 1 14.9586 35.3293 4.67788 1
4265 1 11.4608 36.0512 4.53259 5
4266 1 39.8455 4.46447 40.1851 5
4267 1 40.9652 4.49068 36.6953 5
4268 1 40.3311 2.62926 38.4022 5
4269 1 45.3441 6.90463 38.7934 5
4270 1 43.9356 2.30809 39.3948 5
4271 1 42.6892 2.54833 37.304 5
4272 1 46.3804 2.48993 38.5432 5
4273 1 45.4625 3.78079 40.6867 5
4274 1 47.2639 1.72979 41.2926 5
4275 1 48.0362 3.78964 40.319 5
4276 1 49.9624 43.2485 40.1988 5
4277 1 50.092 5.92233 2.70427 5
4278 1 -4.40549 43.3593 3.95627 5
4279 1 -2.42187 3.66685 41.1978 5
4280 1 -0.967408 1.65706 41.3542 5
4281 1 -1.69872 4.0036 2.76287 5
4282 1 1.95445 42.4581 4.62383 5
4283 1 0.697324 42.8945 2.67289 5
4284 1 3.74619 42.2023 3.11878 5
4285 1 4.66384 43.436 5.36087 5
4286 1 5.42594 41.0726 5.07953 5
4287 1 5.78313 42.5581 42.7719 5
4288 1 7.15373 41.4933 3.7816 5
4289 1 7.6269 42.7142 5.70187 1
4290 1 9.07962 40.4413 5.34549 5
4291 1 40.9098 6.05292 38.6064 5
4292 1 42.637 7.72623 39.0473 5
4293 1 42.6412 5.89234 36.8563 5
4294 1 44.5303 4.20291 37.8706 5
4295 1 49.0637 5.85359 38.9856 5
4296 1 0.384414 3.42132 42.1869 5
4297 1 2.06579 3.12192 2.75617 5
4298 1 36.823 19.2232 31.4433 5
4299 1 35.7313 21.157 31.9978 1
4300 1 35.779 21.4621 37.3843 5
4301 1 39.6382 21.6747 34.2018 5
4302 1 40.8302 19.1964 33.5641 5
4303 1 39.0394 19.4829 35.429 5
4304 1 43.6575 21.7249 32.6437 5
4305 1 38.8648 25.1511 36.7969 2
4306 1 38.8633 26.5799 38.565 5
4307 1 39.9594 22.7813 36.1694 5
4308 1 39.7009 26.4826 34.3263 5
4309 1 42.7184 24.3411 32.7463 5
4310 1 42.8222 25.7278 34.8151 5
4311 1 42.1053 22.0709 34.4286 5
4312 1 44.9354 25.347 33.2499 5
4313 1 42.0004 23.596 36.4691 5
4314 1 46.4905 25.1758 35.4621 5
4315 1 47.3309 22.8671 35.3258 5
4316 1 37.1993 30.6039 34.6797 5
4317 1 41.0737 31.5562 36.6614 5
4318 1 41.712 27.6886 35.02 5
4319 1 42.2248 29.5575 33.4992 5
4320 1 43.3828 27.3466 33.3124 5
4321 1 43.6776 29.0371 35.3458 5
4322 1 45.009 27.0258 34.9685 5
4323 1 47.0435 27.1413 33.839 5
4324 1 48.2521 24.5777 33.777 5
4325 1 48.8845 26.741 35.3096 5
4326 1 -4.6913 24.3617 35.3356 5
4327 1 -4.17174 26.2553 36.326 5
4328 1 -4.09284 26.0829 33.849 5
4329 1 -4.70044 24.3812 37.751 5
4330 1 -4.40726 26.4525 38.9486 5
4331 1 -2.17327 26.6969 37.5032 2
4332 1 1.33306 27.8425 40.3383 5
4333 1 38.5595 32.518 35.5881 5
4334 1 40.5724 35.1391 31.0565 5
4335 1 41.37 34.4259 33.058 5
4336 1 43.1378 31.4287 35.1881 5
4337 1 42.9443 32.6466 33.1051 5
4338 1 45.5699 28.8372 33.8788 5
4339 1 45.9872 31.074 35.4533 5
4340 1 47.5627 29.018 35.6018 5
4341 1 48.5875 31.0833 34.6985 5
4342 1 -4.21553 28.2261 35.1086 5
4343 1 49.4153 30.0856 36.7194 5
4344 1 -3.90795 28.4443 37.7046 5
4345 1 -3.3297 30.2916 35.835 5
4346 1 -1.68317 28.5418 36.1857 5
4347 1 -1.88989 29.9772 38.2865 5
4348 1 -2.27669 27.6337 39.7065 5
4349 1 0.259241 29.8863 36.8652 5
4350 1 1.92603 30.0399 39.1013 5
4351 1 -0.260465 29.6761 40.1004 5
4352 1 3.4365 29.1048 40.8391 5
4353 1 2.9039 31.9329 42.8623 5
4354 1 5.14653 27.7404 2.75645 5
4355 1 40.7073 35.7127 35.2015 5
4356 1 38.9505 34.678 34.3503 5
4357 1 43.3807 35.5884 34.1209 5
4358 1 42.0282 37.6182 34.0973 5
4359 1 44.5601 33.3093 34.758 5
4360 1 44.4693 37.2147 32.8484 5
4361 1 46.0292 35.1245 33.6428 5
4362 1 46.6398 34.8233 36.1136 5
4363 1 47.5639 32.4311 36.3959 5
4364 1 48.9958 34.8048 34.9359 5
4365 1 -4.95415 32.3636 35.4022 5
4366 1 49.4964 34.1324 37.1976 5
4367 1 -3.37173 32.0193 37.3549 5
4368 1 -3.4417 34.2135 36.2277 5
4369 1 -1.17426 32.2951 36.5454 5
4370 1 -1.97752 34.0416 38.4182 5
4371 1 -0.284111 31.7672 38.6445 5
4372 1 1.84527 33.2107 39.4814 5
4373 1 4.04875 31.1745 40.4992 5
4374 1 3.5836 33.5096 40.9727 5
4375 1 5.10714 32.4643 42.8184 5
4376 1 7.15779 32.265 41.7225 5
4377 1 8.22648 29.9029 41.072 5
4378 1 8.74851 31.3448 2.31278 5
4379 1 10.0031 29.0963 2.25919 5
4380 1 11.1155 33.8188 40.5557 5
4381 1 12.1009 30.4398 2.66122 1
4382 1 39.3515 38.5294 33.8216 5
4383 1 43.1905 39.1578 32.5831 5
4384 1 42.4342 36.7554 31.757 5
4385 1 43.997 38.9599 35.1526 5
4386 1 45.3254 36.5452 35.2873 5
4387 1 46.003 38.586 33.7773 1
4388 1 47.6355 36.7295 34.3644 1
4389 1 46.8739 38.2312 36.1052 5
4390 1 48.2425 36.4805 36.8085 1
4391 1 49.1673 38.148 35.0526 5
4392 1 -4.72324 36.2819 35.9729 5
4393 1 49.9506 38.1131 37.7012 5
4394 1 -3.39079 35.8762 37.9795 5
4395 1 -1.64686 37.5343 39.125 5
4396 1 0.291774 35.6181 39.3358 5
4397 1 -0.0541046 37.2221 40.9702 5
4398 1 -0.441025 33.5515 40.1958 5
4399 1 2.44632 37.0199 39.7723 5
4400 1 4.36984 35.3907 39.802 5
4401 1 1.8355 35.0428 40.9748 5
4402 1 5.67921 34.7137 41.9082 5
4403 1 6.52432 36.4482 40.6096 5
4404 1 9.31858 33.5567 42.1324 1
4405 1 7.72515 35.3456 42.5956 5
4406 1 13.395 35.0332 41.1478 5
4407 1 11.3364 34.8034 2.32369 1
4408 1 15.4738 29.8275 2.76473 1
4409 1 12.6919 32.9532 42.4816 5
4410 1 41.5604 39.6272 35.1474 5
4411 1 42.136 41.4254 33.0937 5
4412 1 44.8179 40.606 33.3501 5
4413 1 43.9403 41.4555 35.3754 5
4414 1 45.9463 40.3465 36.081 5
4415 1 46.3843 42.3379 34.7173 5
4416 1 47.6837 40.2042 34.7924 5
4417 1 46.6526 42.3025 37.3844 5
4418 1 48.1123 40.0803 37.5031 5
4419 1 50.0963 41.8048 38.4816 5
4420 1 -3.21622 39.4944 38.6107 5
4421 1 -3.6144 41.25 40.3282 5
4422 1 -2.10511 38.9511 40.7901 5
4423 1 -1.03919 41.8224 39.8118 5
4424 1 -0.238176 39.7637 39.9284 5
4425 1 0.646099 41.7365 41.3317 5
4426 1 2.06074 39.7788 40.4122 5
4427 1 3.02228 41.9549 40.2053 5
4428 1 5.04214 39.0895 40.5122 5
4429 1 4.15247 40.8653 41.6549 5
4430 1 6.44403 38.1139 42.6784 5
4431 1 7.15551 39.1396 39.3935 5
4432 1 9.9488 34.7504 38.8274 5
4433 1 10.0509 36.0324 41.0917 5
4434 1 9.94056 36.5816 2.53274 5
4435 1 13.4304 36.2867 2.95318 1
4436 1 40.7406 1.73142 33.3656 5
4437 1 43.1056 1.64869 34.6563 5
4438 1 41.6845 3.72946 31.8813 5
4439 1 44.9362 43.1246 33.0676 5
4440 1 44.1837 4.08059 35.5019 5
4441 1 45.2005 1.96413 36.1491 5
4442 1 46.3655 4.01545 36.2861 5
4443 1 47.8181 1.90247 36.2184 5
4444 1 46.8089 4.90125 38.3735 5
4445 1 48.7691 2.03876 38.4955 5
4446 1 -4.8488 3.81639 39.2632 5
4447 1 -2.77494 1.78712 39.5834 5
4448 1 -4.11532 5.82452 40.5465 5
4449 1 -3.68231 43.0105 41.8178 5
4450 1 -0.71679 1.8602 38.7296 2
4451 1 0.876734 41.6234 38.7346 5
4452 1 1.32792 1.79848 40.3168 5
4453 1 2.67911 43.1901 42.1126 5
4454 1 3.49791 2.17615 39.0631 5
4455 1 5.43356 41.2386 39.4357 5
4456 1 4.92306 43.2811 40.6904 5
4457 1 6.82922 40.3973 41.7227 5
4458 1 7.58902 42.6479 40.4766 5
4459 1 8.3684 38.3156 41.3606 5
4460 1 8.79284 39.218 3.26177 5
4461 1 12.0406 38.1124 3.44296 5
4462 1 44.6881 9.68494 35.6571 5
4463 1 42.914 5.39164 33.4453 5
4464 1 44.2215 7.12234 34.5501 5
4465 1 45.3219 5.93526 36.4901 5
4466 1 46.0854 5.29929 34.1604 5
4467 1 49.1862 4.18624 37.2286 5
4468 1 50.1761 6.48373 36.3915 5
4469 1 -2.23 3.51638 38.2489 5
4470 1 0.00617624 3.86683 39.8377 5
4471 1 2.19985 4.07624 39.2426 5
4472 1 39.3374 18.9948 29.7292 5
4473 1 36.2131 23.5539 30.9449 5
4474 1 37.4872 21.4457 30.3622 5
4475 1 38.4259 23.8642 34.6247 2
4476 1 39.1714 20.0687 32.0362 5
4477 1 37.8545 22.5592 32.5032 5
4478 1 41.7067 19.3268 29.6501 5
4479 1 44.0125 20.0275 30.0306 5
4480 1 44.8189 24.3462 31.2049 5
4481 1 37.7503 27.0982 32.8285 5
4482 1 38.7537 25.0407 32.2423 5
4483 1 37.4668 25.966 34.9991 5
4484 1 40.7283 24.2283 33.9789 5
4485 1 41.4148 24.6328 30.7627 5
4486 1 44.8917 22.246 29.0115 5
4487 1 39.8412 28.5947 32.7683 5
4488 1 41.542 20.564 31.7927 5
4489 1 47.0747 23.7649 29.6835 5
4490 1 46.0622 23.3731 33.1242 5
4491 1 -4.85188 24.1772 32.5589 5
4492 1 37.7539 29.2623 31.6752 5
4493 1 39.3744 32.9604 32.0779 5
4494 1 39.7786 29.3745 30.1122 5
4495 1 40.7941 32.1255 34.1374 5
4496 1 38.4017 28.5003 34.8406 5
4497 1 39.0005 30.7416 33.2114 5
4498 1 42.0392 28.4974 31.51 5
4499 1 45.6917 26.9407 31.3487 5
4500 1 40.9515 26.4413 32.2535 5
4501 1 47.7179 28.7387 31.812 5
4502 1 43.2493 26.4679 30.8063 5
4503 1 49.025 28.7931 33.9496 5
4504 1 47.0125 25.0766 31.9453 5
4505 1 -2.15655 26.2795 32.4493 5
4506 1 49.256 26.6506 32.6003 5
4507 1 -2.07691 26.2665 35.1288 5
4508 1 2.72158 29.2407 32.9749 5
4509 1 38.9148 33.7934 29.7108 5
4510 1 41.9706 33.1451 30.4794 5
4511 1 40.627 30.8741 31.7457 5
4512 1 44.3826 32.9953 30.1275 5
4513 1 44.4606 30.8527 33.2955 5
4514 1 44.6064 30.5233 29.1391 5
4515 1 45.6547 30.8105 31.1905 5
4516 1 47.2479 33.2256 34.0819 5
4517 1 46.9112 30.7315 33.252 5
4518 1 49.1924 30.3873 32.341 5
4519 1 -4.03087 28.3768 32.4384 5
4520 1 -4.1156 30.5544 33.7947 5
4521 1 -1.9498 28.157 33.7614 5
4522 1 -0.883363 30.2335 32.7102 5
4523 1 0.512499 28.0856 32.0915 5
4524 1 -1.20389 30.5734 34.862 5
4525 1 0.558276 28.7093 34.6189 5
4526 1 2.54198 30.4367 35.0539 5
4527 1 4.30358 28.6201 35.3356 5
4528 1 -0.0422916 27.7809 38.5663 5
4529 1 2.50458 28.4627 36.9629 5
4530 1 6.55769 30.0419 36.1777 5
4531 1 5.90103 28.9739 39.6462 5
4532 1 40.0945 36.5801 33.1068 2
4533 1 43.094 35.2689 29.6571 5
4534 1 42.9194 30.7843 31.0907 5
4535 1 43.6862 34.7567 31.7639 5
4536 1 45.214 32.941 32.3928 5
4537 1 45.9996 34.5608 30.8895 5
4538 1 47.5837 32.4267 31.6295 5
4539 1 48.2288 34.6695 32.3843 2
4540 1 49.6262 32.6858 33.0932 5
4541 1 -4.68034 34.7924 31.3481 5
4542 1 -2.86556 33.062 32.2645 5
4543 1 -4.12601 34.4343 33.8844 5
4544 1 -2.78695 32.5743 34.9086 5
4545 1 -0.949321 34.5763 35.4244 5
4546 1 0.927725 32.175 35.2472 5
4547 1 0.153774 33.8157 37.537 5
4548 1 2.07578 31.7123 37.4694 5
4549 1 4.20226 33.5676 37.938 5
4550 1 4.58955 30.1733 37.7783 5
4551 1 5.68628 33.4823 39.7318 5
4552 1 6.68293 31.2103 39.649 5
4553 1 7.79469 33.3146 38.4232 5
4554 1 10.3705 30.2085 38.8068 5
4555 1 9.07492 32.1231 40.0171 5
4556 1 12.1116 29.4021 41.0566 5
4557 1 14.6468 32.126 37.9714 5
4558 1 13.9039 30.9478 41.5914 5
4559 1 41.2164 37.2025 29.5492 5
4560 1 39.8755 40.5715 32.236 5
4561 1 40.9956 38.7124 32.0856 5
4562 1 43.2208 38.4702 30.144 5
4563 1 44.9456 36.7531 30.4823 5
4564 1 45.4908 39.1168 31.3914 5
4565 1 46.8838 36.6874 31.9574 2
4566 1 47.6795 38.837 30.504 5
4567 1 48.8184 36.5432 30.9133 5
4568 1 48.5526 38.648 32.8098 5
4569 1 -5.01006 36.6351 33.163 5
4570 1 -3.71567 38.4594 35.224 5
4571 1 -2.42795 36.1021 34.5407 5
4572 1 -2.61802 38.0218 37.0058 5
4573 1 -1.07044 35.9885 37.4962 5
4574 1 -0.736123 37.8272 35.8032 5
4575 1 2.51475 34.0231 36.0137 5
4576 1 0.715674 37.7197 38.0793 5
4577 1 2.50916 35.3153 38.1448 5
4578 1 2.74766 37.5647 36.9923 5
4579 1 6.5813 35.3944 38.4586 5
4580 1 4.83731 37.4354 38.8181 5
4581 1 7.92606 34.4676 40.1759 5
4582 1 8.72692 35.311 37.0268 5
4583 1 12.5011 31.5814 39.5999 5
4584 1 10.6638 32.7139 37.9747 5
4585 1 14.789 33.2419 40.5029 5
4586 1 12.1499 30.8124 37.246 5
4587 1 41.9567 40.4104 30.8351 5
4588 1 40.7852 42.3185 30.6389 5
4589 1 44.0114 41.4456 31.3422 5
4590 1 44.9113 43.4892 30.3396 5
4591 1 45.9845 41.0797 30.1001 5
4592 1 47.0178 43.2127 31.6677 5
4593 1 46.9418 40.872 32.3802 5
4594 1 48.391 42.4001 33.7028 5
4595 1 50.0064 40.5393 34.5862 5
4596 1 49.1882 42.1577 36.5617 5
4597 1 -4.31042 40.2217 36.7221 5
4598 1 -3.52219 42.2672 35.6702 5
4599 1 -2.19027 40.2602 36.0892 5
4600 1 -2.47104 42.0439 38.0678 5
4601 1 -0.85102 39.7059 37.8099 5
4602 1 -0.00663772 40.0648 34.8448 5
4603 1 1.53595 38.3051 35.1431 5
4604 1 1.5292 40.1856 36.6478 5
4605 1 3.11849 39.1489 38.6552 5
4606 1 3.79101 39.6799 35.6605 5
4607 1 6.83004 37.7128 37.588 5
4608 1 5.56473 39.8871 37.4954 5
4609 1 8.53607 36.7163 39.0605 5
4610 1 9.08582 39.3112 37.7986 5
4611 1 10.496 36.8937 37.677 2
4612 1 10.4966 38.0899 39.7313 5
4613 1 39.671 43.2661 28.9361 1
4614 1 41.7056 2.75438 29.525 5
4615 1 42.4826 5.71805 30.7878 2
4616 1 42.9032 43.6265 31.8231 5
4617 1 46.765 5.90228 30.7602 5
4618 1 46.1516 3.7168 31.8894 5
4619 1 44.2377 3.5746 33.0061 5
4620 1 47.0889 3.07334 34.0909 5
4621 1 49.2676 2.48228 32.9088 5
4622 1 -3.74582 42.3229 33.2393 5
4623 1 49.977 2.47033 35.5959 5
4624 1 -4.06728 1.99825 37.6251 5
4625 1 -3.23129 2.30319 34.5977 5
4626 1 -1.27851 42.0449 34.2646 5
4627 1 -1.8194 1.84485 36.5176 1
4628 1 -0.393569 41.9745 36.6495 5
4629 1 0.27798 2.23765 35.4793 1
4630 1 2.02922 42.3579 35.5022 5
4631 1 1.42511 1.72056 37.7316 5
4632 1 3.03821 42.0392 37.557 5
4633 1 4.34401 1.82024 36.2664 5
4634 1 5.73317 41.6729 36.3062 5
4635 1 13.2255 41.5469 39.5266 1
4636 1 7.40933 41.2725 38.1318 5
4637 1 12.7776 39.3453 40.6178 1
4638 1 8.92711 40.7157 40.115 5
4639 1 44.7213 5.91803 29.8634 2
4640 1 43.8417 3.66179 30.4341 2
4641 1 44.6895 5.78637 32.2305 5
4642 1 45.5778 8.97379 33.4524 5
4643 1 48.1415 5.00762 32.4301 5
4644 1 46.9046 7.03521 32.817 5
4645 1 48.2698 5.0319 35.0015 5
4646 1 -4.60094 4.62655 31.9533 5
4647 1 -3.56869 4.10319 36.3111 1
4648 1 -1.2728 4.09813 35.0838 1
4649 1 0.0552369 3.74179 37.2844 5
4650 1 6.07712 1.66111 38.5504 5
4651 1 9.55787 42.6755 39.1645 5
4652 1 7.90825 43.5229 2.51013 5
4653 1 36.3932 20.6133 26.5502 5
4654 1 35.7393 18.1575 27.4807 5
4655 1 38.9959 18.0892 27.7746 5
4656 1 36.4264 22.327 28.7213 5
4657 1 38.7371 22.5726 28.0443 5
4658 1 37.5789 20.391 28.3126 5
4659 1 38.4302 23.7783 30.2895 5
4660 1 39.9065 21.4885 29.9769 5
4661 1 40.927 23.307 28.9704 5
4662 1 47.3235 22.1501 27.4195 5
4663 1 43.0885 21.3499 27.7866 5
4664 1 37.4124 20.2046 33.6615 1
4665 1 39.2197 25.7593 28.9313 5
4666 1 41.5235 26.8368 29.5062 5
4667 1 39.3485 27.1276 30.7985 5
4668 1 42.5779 22.3719 30.4685 5
4669 1 43.5264 27.4377 28.5517 5
4670 1 45.1633 21.7648 26.6157 5
4671 1 40.2058 22.9041 31.9125 5
4672 1 43.722 18.9044 27.6734 5
4673 1 42.5983 28.4049 26.5907 5
4674 1 49.1668 23.4882 28.2937 5
4675 1 49.1352 24.8672 30.4314 5
4676 1 -2.59371 24.2226 33.5018 5
4677 1 38.5051 31.5524 30.3401 5
4678 1 36.4863 30.0887 29.4729 5
4679 1 38.5705 27.633 23.9708 5
4680 1 40.4133 26.6313 25.7474 5
4681 1 42.1031 29.2311 29.0343 5
4682 1 42.1747 26.0552 27.2253 5
4683 1 45.7725 27.9257 24.7941 5
4684 1 42.5803 26.6837 24.9004 5
4685 1 44.3422 28.769 30.8487 5
4686 1 47.9627 27.0326 30.1425 5
4687 1 46.0806 28.4837 29.1885 5
4688 1 47.9655 25.6302 28.2107 5
4689 1 -4.10144 26.314 31.2557 5
4690 1 -2.27859 24.5121 30.86 5
4691 1 -4.2152 25.2407 28.6927 5
4692 1 2.31928 26.2716 32.6085 5
4693 1 2.05933 26.1366 29.8207 5
4694 1 39.4138 31.2666 25.4686 5
4695 1 41.0054 34.0305 28.5602 5
4696 1 40.833 31.4485 29.3473 5
4697 1 41.013 30.2091 27.1172 5
4698 1 43.7927 29.4854 24.4543 5
4699 1 43.2988 30.9175 26.5401 5
4700 1 45.1447 28.8769 26.9998 5
4701 1 46.787 30.3767 27.7314 5
4702 1 48.4355 28.953 28.2049 5
4703 1 47.9983 30.2394 29.9458 5
4704 1 49.7156 28.6897 30.8426 5
4705 1 -5.07917 30.6163 29.0085 5
4706 1 -3.34346 28.9354 29.3102 5
4707 1 -3.53951 30.5835 31.2926 5
4708 1 -1.78097 28.5501 31.2006 5
4709 1 1.28706 30.0129 31.0522 5
4710 1 3.16874 28.0181 31.0077 5
4711 1 1.20899 31.023 33.227 5
4712 1 7.0582 29.4251 30.7825 5
4713 1 5.1071 29.3522 32.1467 5
4714 1 8.84846 28.622 32.7683 5
4715 1 4.84388 30.6011 34.1661 5
4716 1 9.33866 30.6827 31.3802 5
4717 1 8.56482 29.5946 34.9117 5
4718 1 40.2728 37.8635 27.1701 5
4719 1 41.5006 32.6036 26.4983 1
4720 1 42.872 31.9573 28.5483 5
4721 1 43.177 33.9747 27.2403 5
4722 1 44.8993 32.3396 27.5843 5
4723 1 45.3167 34.7405 28.2328 5
4724 1 46.6515 32.8458 29.0122 5
4725 1 47.8444 34.6182 27.1077 5
4726 1 49.0696 32.8047 28.2236 5
4727 1 48.5112 34.3314 29.9266 5
4728 1 49.785 32.3153 30.5127 5
4729 1 -2.33946 34.9716 30.4315 5
4730 1 -1.00308 32.6258 30.4944 5
4731 1 -1.11196 34.89 32.8815 5
4732 1 -0.686643 32.7457 33.5972 5
4733 1 -0.0868727 34.8748 30.4879 5
4734 1 2.94313 32.7112 33.8488 1
4735 1 1.19156 34.387 33.8331 5
4736 1 4.0563 32.0911 36.0398 5
4737 1 4.73153 34.2296 34.8706 5
4738 1 7.15666 31.9187 35.0964 5
4739 1 6.73403 33.9079 36.2361 5
4740 1 6.18685 31.9151 37.5423 5
4741 1 9.01289 32.237 33.546 5
4742 1 10.3798 31.4431 35.5527 5
4743 1 8.598 31.2697 37.3889 5
4744 1 9.98471 29.0524 36.737 1
4745 1 40.9534 40.0754 26.2919 1
4746 1 42.6385 38.0312 25.8268 5
4747 1 42.1809 38.9008 28.2414 5
4748 1 43.8126 37.1917 28.2279 5
4749 1 44.5147 38.9847 26.8161 5
4750 1 46.2998 36.6178 26.9964 5
4751 1 45.5622 38.3689 28.9663 5
4752 1 46.9063 36.4526 29.5149 5
4753 1 50.0629 38.5962 30.6207 5
4754 1 -3.79509 36.7016 30.138 5
4755 1 -4.1478 38.6586 32.8585 5
4756 1 -2.84882 36.378 32.0909 5
4757 1 -2.10921 38.7849 31.3456 5
4758 1 -0.0897546 36.9045 31.6615 5
4759 1 -1.66225 38.1195 33.6963 5
4760 1 0.319755 36.445 34.1164 2
4761 1 2.03068 36.3111 32.4683 5
4762 1 3.1572 36.2826 34.4258 5
4763 1 1.14729 36.0885 36.4082 5
4764 1 4.78443 35.908 37.1076 5
4765 1 5.75378 36.4506 33.5589 5
4766 1 7.42366 34.0344 33.8219 5
4767 1 6.97543 36.118 35.612 5
4768 1 8.97779 33.3585 35.8111 2
4769 1 9.2656 35.712 34.595 5
4770 1 11.0325 33.6788 33.9645 5
4771 1 10.9067 34.8091 36.1327 5
4772 1 12.7735 33.0808 36.4814 5
4773 1 43.089 41.0768 27.1733 1
4774 1 42.9411 42.3658 29.6448 1
4775 1 44.1577 40.2178 28.9801 5
4776 1 46.5931 40.0219 27.9381 5
4777 1 48.5433 40.9583 30.0221 5
4778 1 47.1154 43.2828 29.2874 5
4779 1 49.4269 40.9352 32.2653 5
4780 1 -4.4447 41.0938 29.577 5
4781 1 -3.04252 38.8526 29.0196 5
4782 1 -3.53351 40.6749 31.6121 5
4783 1 -2.71207 40.1873 33.7379 5
4784 1 -1.51323 40.7793 30.2018 5
4785 1 -0.108207 38.9463 30.5315 5
4786 1 -0.674268 40.4691 32.559 5
4787 1 0.915766 38.7949 32.7814 5
4788 1 1.58569 40.6403 31.5195 5
4789 1 3.54819 38.619 33.169 5
4790 1 2.33863 40.561 33.8985 5
4791 1 5.45083 38.0323 35.5236 5
4792 1 5.64301 40.3813 34.1856 5
4793 1 7.67709 37.9978 34.3073 5
4794 1 7.30662 39.6514 36.1234 5
4795 1 8.97733 37.6157 36.1472 5
4796 1 11.4006 37.0802 35.3025 5
4797 1 46.1552 2.35372 27.377 1
4798 1 45.1334 42.2031 28.0241 1
4799 1 43.8357 2.30084 28.3951 5
4800 1 45.8723 3.68167 29.4085 5
4801 1 48.3335 3.33613 28.4458 5
4802 1 49.6579 43.1071 28.6819 5
4803 1 48.3057 3.03949 30.7995 5
4804 1 49.7172 42.9989 31.157 5
4805 1 -4.74684 3.19614 29.7287 2
4806 1 -3.23927 43.1678 30.0461 5
4807 1 -3.4788 2.53782 32.0988 5
4808 1 -1.92016 42.5605 32.0059 5
4809 1 -1.28135 2.45421 30.6102 5
4810 1 0.317559 42.5952 31.2193 5
4811 1 -0.825036 2.31124 33.0938 5
4812 1 0.863597 42.6148 33.5539 5
4813 1 1.58093 2.53847 31.9768 5
4814 1 2.82748 42.3016 32.2079 5
4815 1 2.45473 2.37059 34.5639 5
4816 1 4.15272 42.1867 34.4303 5
4817 1 7.84942 41.742 35.6026 5
4818 1 9.75434 39.7608 35.231 5
4819 1 8.45587 1.85793 37.4152 5
4820 1 11.3203 40.0741 39.0404 5
4821 1 44.7649 4.48936 27.5957 5
4822 1 44.3999 6.10468 21.8839 5
4823 1 46.8318 4.25111 26.0215 5
4824 1 47.9026 7.5363 26.9284 5
4825 1 46.8346 5.68165 28.22 2
4826 1 48.8378 9.45958 26.0123 2
4827 1 49.0555 4.98209 27.1663 5
4828 1 45.7598 8.26857 31.2214 2
4829 1 48.9123 5.50034 29.6855 5
4830 1 -2.47818 4.44959 30.7509 2
4831 1 -2.29596 4.62922 33.0249 2
4832 1 -1.60917 6.76709 31.5075 5
4833 1 -0.268271 4.31514 31.7009 5
4834 1 6.7772 1.76661 31.2282 5
4835 1 6.99677 2.18739 35.6171 5
4836 1 10.5221 1.40248 35.9076 5
4837 1 40.0595 20.5463 27.8801 5
4838 1 40.2684 15.605 27.0297 5
4839 1 34.9344 23.0169 27.2338 5
4840 1 38.7886 21.0592 25.9091 5
4841 1 37.3342 23.0098 26.1444 5
4842 1 44.4873 19.1727 22.7479 5
4843 1 41.7945 19.781 26.5275 5
4844 1 43.249 17.4836 25.4791 5
4845 1 44.5066 19.7497 25.2288 5
4846 1 43.1935 23.4952 26.905 5
4847 1 41.8868 22.5491 20.4708 5
4848 1 40.8034 22.3443 26.7544 5
4849 1 42.9999 21.7202 25.3099 5
4850 1 45.1509 21.7274 23.9881 5
4851 1 39.8561 24.3415 26.6074 5
4852 1 43.485 24.6124 28.8492 5
4853 1 45.5466 24.0452 27.6756 5
4854 1 47.4594 21.9036 24.9373 5
4855 1 45.7007 26.0175 28.7639 5
4856 1 48.3671 23.8728 25.8276 5
4857 1 -4.36015 23.9204 24.4712 5
4858 1 -2.82194 21.5862 24.7232 5
4859 1 -4.12103 23.2528 26.9495 5
4860 1 39.4286 29.7163 23.2201 5
4861 1 40.8135 27.3685 23.3769 5
4862 1 39.2683 28.9982 25.9914 5
4863 1 41.7473 24.5762 25.3241 5
4864 1 43.4078 27.26 19.7893 5
4865 1 47.3583 26.2269 25.4993 5
4866 1 41.1241 28.9444 24.8771 5
4867 1 43.7965 23.8202 24.4799 5
4868 1 47.7524 27.751 23.629 5
4869 1 49.3892 27.8985 26.1075 5
4870 1 46.8767 27.5385 27.2666 5
4871 1 44.6917 25.9537 26.3562 5
4872 1 49.7153 25.6218 26.6024 5
4873 1 -3.43546 25.6371 25.4217 5
4874 1 -5.08094 27.3416 28.9324 5
4875 1 -1.76267 24.9838 27.5328 5
4876 1 0.28716 24.5768 26.4742 1
4877 1 2.12508 26.2512 27.0442 2
4878 1 0.144771 25.9493 30.9651 5
4879 1 4.28408 25.8228 28.657 5
4880 1 43.6498 27.8004 22.4446 5
4881 1 41.6323 31.1041 24.1175 5
4882 1 42.3291 25.6795 22.4696 5
4883 1 43.8256 31.4119 23.2975 1
4884 1 45.766 29.6864 23.2422 5
4885 1 45.7122 31.0887 25.2526 5
4886 1 47.5799 29.7109 25.0968 5
4887 1 47.5624 31.9636 23.7672 5
4888 1 49.6837 30.0861 24.4747 5
4889 1 49.0343 30.8711 26.7406 5
4890 1 -4.08194 29.4587 27.0796 5
4891 1 -1.94162 30.8105 27.5113 5
4892 1 -1.70021 26.78 29.5118 5
4893 1 -1.00336 30.2767 29.5868 5
4894 1 0.414829 28.3534 29.4626 5
4895 1 3.26201 30.6892 27.1708 5
4896 1 0.212293 26.4341 28.2985 5
4897 1 3.1877 31.321 31.8532 5
4898 1 4.23275 25.8583 31.183 5
4899 1 3.65329 30.2224 29.5105 5
4900 1 4.7402 28.5244 27.2864 5
4901 1 10.2813 30.8149 25.9391 5
4902 1 40.8042 35.6517 22.7432 5
4903 1 42.1745 33.425 22.7704 5
4904 1 42.1605 34.892 24.9218 1
4905 1 43.3836 32.8076 24.7984 5
4906 1 44.1122 34.8507 23.5816 1
4907 1 45.5798 33.0199 23.9951 5
4908 1 45.6194 34.4018 25.9849 5
4909 1 47.2155 32.3647 26.3307 5
4910 1 -5.07916 34.9798 26.2463 5
4911 1 -3.85489 32.3172 26.9753 5
4912 1 -4.21783 34.4513 28.9125 5
4913 1 -3.12713 32.1506 29.4362 5
4914 1 -2.77182 34.4907 25.9716 5
4915 1 1.89754 32.2429 29.4226 5
4916 1 -2.06548 33.7416 28.1525 5
4917 1 1.32959 32.8624 31.5766 5
4918 1 4.54061 32.1519 28.1208 5
4919 1 3.96385 33.5567 30.3752 5
4920 1 3.41277 34.5592 32.3928 5
4921 1 5.31743 28.0243 29.5645 5
4922 1 8.11595 31.318 29.4791 5
4923 1 5.78878 31.518 30.6643 5
4924 1 5.16881 32.82 32.7368 5
4925 1 7.5276 33.0337 31.7359 5
4926 1 6.67539 31.0397 33.1197 5
4927 1 11.6584 31.0323 30.2311 5
4928 1 11.2745 31.9365 32.4202 5
4929 1 13.0344 30.3777 32.0311 5
4930 1 41.0491 39.237 24.0678 5
4931 1 43.0286 39.0434 22.6891 5
4932 1 42.6905 37.0457 23.472 5
4933 1 44.6183 37.9448 24.5425 5
4934 1 44.0482 36.0628 25.932 5
4935 1 47.2709 38.0606 23.3438 5
4936 1 48.3738 36.7284 25.4184 5
4937 1 48.0019 38.15 27.8484 5
4938 1 49.1546 36.3547 28.707 5
4939 1 -4.36158 37.1154 25.6002 5
4940 1 -0.50968 36.0402 23.3884 5
4941 1 -3.62195 36.3149 27.7665 5
4942 1 -1.67047 36.9653 29.313 5
4943 1 -1.14123 36.0904 27.1204 5
4944 1 0.639469 34.6187 28.2343 5
4945 1 0.831003 36.7613 29.3747 5
4946 1 2.06935 35.2944 30.3108 5
4947 1 3.4637 37.0828 29.06 5
4948 1 5.18234 35.6609 29.4373 5
4949 1 4.38979 36.8811 31.4149 5
4950 1 5.81322 34.9033 31.7211 5
4951 1 6.41887 37.4349 30.5036 5
4952 1 8.05909 35.2566 30.3504 5
4953 1 7.92882 36.3809 32.2944 5
4954 1 9.40084 34.588 32.4367 5
4955 1 8.20591 38.8574 31.2609 1
4956 1 9.9747 37.0482 30.7622 5
4957 1 12.8898 35.0646 34.7226 5
4958 1 43.3247 40.1118 24.9595 5
4959 1 44.2456 40.8007 21.8387 5
4960 1 43.7295 43.1548 26.3883 5
4961 1 46.1682 43.356 25.3501 5
4962 1 46.8988 38.9229 25.687 5
4963 1 47.7352 41.1944 25.2927 5
4964 1 49.1668 39.12 25.5999 5
4965 1 48.9619 40.7121 27.7933 5
4966 1 -4.9769 38.4809 27.9179 5
4967 1 -3.8461 40.4847 26.3532 5
4968 1 -2.5011 38.5044 26.5786 5
4969 1 -1.61603 40.6507 27.8145 5
4970 1 -0.356128 38.8111 28.2034 5
4971 1 0.505463 40.6508 26.8308 5
4972 1 2.08308 38.6442 28.2926 5
4973 1 0.734409 40.7995 29.1772 5
4974 1 2.0832 38.2789 30.7972 5
4975 1 3.23821 40.6582 29.0622 5
4976 1 4.43048 39.1142 30.4613 5
4977 1 4.24999 40.6007 32.2058 5
4978 1 6.23049 38.7227 32.6504 5
4979 1 6.49075 40.7796 31.2411 5
4980 1 9.78567 37.9675 33.2847 5
4981 1 8.08037 40.1621 33.2941 5
4982 1 15.3695 38.6888 34.1356 1
4983 1 41.4912 3.35883 22.1733 5
4984 1 41.2419 4.46818 24.7089 1
4985 1 44.9318 3.44743 25.3156 5
4986 1 42.6761 8.03915 20.0684 5
4987 1 47.098 3.25889 23.8151 5
4988 1 45.6958 5.19778 23.9486 5
4989 1 47.2486 42.2739 27.1029 5
4990 1 48.2513 2.31749 26.2675 5
4991 1 49.7967 42.5591 26.2203 5
4992 1 -4.32358 2.58145 27.229 1
4993 1 -3.16843 42.5217 27.6966 5
4994 1 -2.28461 2.40493 26.3281 5
4995 1 -0.447039 42.7142 26.3839 5
4996 1 -2.20902 2.89367 28.6693 2
4997 1 -0.903604 42.6437 28.7791 5
4998 1 0.016225 2.76145 27.4306 5
4999 1 1.5858 42.8632 27.507 5
5000 1 0.620817 2.634 29.7578 5
5001 1 2.30575 42.5033 29.7933 5
5002 1 3.92123 42.7864 28.1639 5
5003 1 4.46639 42.0852 30.4222 5
5004 1 3.54771 2.61224 30.6876 5
5005 1 6.57286 42.5808 33.9436 5
5006 1 5.64403 2.35535 28.9796 5
5007 1 9.88182 41.4572 37.1065 5
5008 1 43.7086 5.79933 19.697 5
5009 1 45.2562 7.84538 20.3127 5
5010 1 44.5043 8.28688 18.3274 5
5011 1 47.9231 6.17178 24.7969 5
5012 1 48.9242 6.96056 21.3517 5
5013 1 -5.06206 7.45573 25.5017 5
5014 1 -4.0507 9.25585 24.4435 5
5015 1 -3.61559 4.43104 25.7557 5
5016 1 -3.01643 11.5633 25.7079 5
5017 1 -3.69156 4.80302 28.4457 5
5018 1 -1.47447 4.84082 26.9041 5
5019 1 -2.21198 6.27577 29.0596 5
5020 1 -0.582439 4.58175 29.2159 5
5021 1 1.80176 6.90133 26.7912 5
5022 1 1.47083 4.80653 28.2792 5
5023 1 2.03667 4.46964 30.6437 5
5024 1 2.92822 2.89538 28.51 2
5025 1 6.27234 43.0987 26.8501 5
5026 1 4.72915 1.68031 32.6405 5
5027 1 41.6585 23.2324 23.4386 5
5028 1 42.9117 21.0014 22.8688 5
5029 1 45.7803 16.8581 22.3016 5
5030 1 46.5153 19.7665 23.779 5
5031 1 48.0292 17.6347 23.3892 5
5032 1 36.5152 26.5632 22.9136 5
5033 1 39.1366 26.1277 19.4258 5
5034 1 40.1993 24.7042 21.1769 5
5035 1 40.0944 25.219 23.6654 5
5036 1 40.8042 20.9059 24.5352 1
5037 1 47.3559 20.7606 19.7151 5
5038 1 46.8445 18.8169 21.4789 5
5039 1 47.8345 21.5152 22.4894 5
5040 1 45.5603 20.9561 21.7534 5
5041 1 49.5275 21.2626 20.8779 5
5042 1 49.0299 19.4435 22.1826 5
5043 1 48.633 23.7464 23.538 5
5044 1 -5.12758 21.9172 23.5477 5
5045 1 -4.30592 23.8265 21.9164 5
5046 1 -2.39989 23.674 23.2354 5
5047 1 39.5803 28.8236 21.0654 5
5048 1 40.1057 30.3074 17.7834 5
5049 1 41.8746 29.0979 20.2285 5
5050 1 43.9954 23.1086 21.6117 5
5051 1 45.9466 24.1519 25.4541 5
5052 1 44.6267 25.6472 21.5795 5
5053 1 47.3076 25.9149 21.9499 5
5054 1 45.3426 25.8149 23.8288 5
5055 1 -4.35595 22.7503 19.8088 5
5056 1 49.6659 25.8221 22.1017 5
5057 1 -3.19834 26.6467 23.2911 5
5058 1 49.5103 26.2079 24.3044 5
5059 1 -3.27287 27.2938 27.4274 5
5060 1 -3.30891 28.0537 25.248 5
5061 1 0.451954 23.3786 24.4193 5
5062 1 -1.19344 28.5607 27.9771 5
5063 1 2.44102 24.6131 25.1783 1
5064 1 0.71684 26.6139 25.1977 5
5065 1 6.77598 26.1847 24.8462 5
5066 1 41.8541 29.3681 22.4242 5
5067 1 42.1975 30.894 18.7733 5
5068 1 44.3804 29.3856 19.1481 5
5069 1 44.2736 30.0607 21.296 5
5070 1 46.1114 27.9559 21.5392 5
5071 1 46.6374 29.9037 20.2218 5
5072 1 48.2048 27.6311 20.5233 5
5073 1 48.1992 29.7113 22.2467 5
5074 1 -4.76734 31.0313 22.4261 5
5075 1 -3.85317 32.6677 24.6275 5
5076 1 -4.93698 28.4517 22.9423 5
5077 1 -2.78912 30.6728 25.3356 5
5078 1 -1.3779 26.9302 26.2318 2
5079 1 -1.07849 29.1859 25.619 5
5080 1 1.23686 29.0218 24.206 5
5081 1 0.956062 30.291 28.5248 5
5082 1 0.819568 28.5841 26.656 5
5083 1 5.4375 30.5153 26.1071 5
5084 1 2.74252 28.0994 28.5667 5
5085 1 6.04201 30.2273 28.5804 5
5086 1 7.25883 28.7458 26.1314 5
5087 1 3.03124 26.6136 24.1862 5
5088 1 4.68574 26.1584 26.2722 5
5089 1 9.63373 34.6995 26.0711 5
5090 1 42.886 34.2608 19.8121 5
5091 1 44.7628 35.5729 20.3004 1
5092 1 44.3318 32.0332 19.7091 5
5093 1 44.1969 33.3455 21.5715 5
5094 1 46.0427 31.8032 21.9566 5
5095 1 46.2844 34.6021 22.3644 5
5096 1 49.7703 33.2817 22.795 5
5097 1 48.0525 34.3765 24.6019 5
5098 1 49.2652 32.8812 25.7568 5
5099 1 -3.66152 32.8174 21.0413 5
5100 1 -0.516851 31.0573 24.0439 5
5101 1 -2.59385 34.7345 23.203 5
5102 1 -0.212119 32.4243 28.1819 5
5103 1 -1.26 32.8272 25.837 5
5104 1 0.661614 30.9365 25.9959 5
5105 1 1.99104 32.6751 27.1732 5
5106 1 6.57552 33.2924 29.5169 5
5107 1 4.25466 32.8702 25.7859 5
5108 1 7.82089 30.7593 24.6406 5
5109 1 7.80263 30.8289 27.0301 5
5110 1 9.55518 28.6716 27.3977 5
5111 1 6.4638 32.8683 26.8296 5
5112 1 13.6407 28.7003 24.9047 5
5113 1 10.2909 31.7602 28.2512 5
5114 1 9.04956 32.4731 25.6233 5
5115 1 13.1277 33.4692 22.092 5
5116 1 44.8075 36.8801 22.2032 5
5117 1 45.7211 38.966 21.331 5
5118 1 47.0647 36.8604 21.2291 5
5119 1 45.8555 40.0221 23.6236 5
5120 1 46.1587 36.1247 24.3782 5
5121 1 48.0885 39.0218 20.6348 5
5122 1 48.6339 35.6118 22.4646 5
5123 1 49.7077 37.8347 23.3518 5
5124 1 -4.6479 35.0798 23.963 5
5125 1 -3.31446 37.1738 22.9918 5
5126 1 -2.16609 36.1172 21.2967 5
5127 1 -2.06269 36.5864 24.9936 5
5128 1 0.186256 34.7568 25.4167 5
5129 1 1.46341 36.6074 24.7103 5
5130 1 2.67169 34.7266 25.6623 5
5131 1 1.28492 36.819 26.9765 5
5132 1 3.1785 34.7482 28.3926 5
5133 1 3.67955 36.7968 26.6039 5
5134 1 5.11367 34.8146 26.8224 5
5135 1 5.92796 37.4193 28.0443 5
5136 1 7.00875 35.0519 28.0672 5
5137 1 8.03378 36.8128 26.7211 5
5138 1 8.51372 33.2964 28.2956 5
5139 1 8.4114 37.4334 29.1451 5
5140 1 9.61514 32.933 30.5179 5
5141 1 44.7166 2.45601 23.1948 5
5142 1 45.2746 41.0078 25.8616 1
5143 1 44.9415 43.3261 21.0528 5
5144 1 46.6983 41.1636 21.5329 5
5145 1 46.262 42.51 23.1148 5
5146 1 48.2519 40.2212 23.1793 5
5147 1 49.1774 41.8836 21.9687 5
5148 1 -4.30077 39.7634 22.4967 5
5149 1 -4.92486 41.3848 24.1905 5
5150 1 -3.41797 39.2311 24.3859 5
5151 1 -2.37112 41.0158 23.1156 1
5152 1 -0.940725 38.6033 23.723 5
5153 1 -1.60069 40.369 25.4717 2
5154 1 -0.04433 38.4164 25.969 5
5155 1 0.842149 40.6428 24.2485 5
5156 1 2.25511 38.8401 25.7772 5
5157 1 2.96458 41.0955 26.6447 5
5158 1 4.38417 39.1059 27.7397 5
5159 1 5.04081 41.093 25.3927 5
5160 1 6.57286 38.8316 26.3148 5
5161 1 5.67133 41.1055 27.771 5
5162 1 6.69993 39.54 29.2142 5
5163 1 8.88589 41.1681 30.3562 5
5164 1 10.1588 39.0886 29.6688 1
5165 1 43.365 4.50129 23.6502 5
5166 1 42.7569 6.96283 17.7056 5
5167 1 45.8582 3.82226 21.748 5
5168 1 45.5644 3.91349 19.4225 5
5169 1 47.5084 1.9967 21.6442 5
5170 1 48.0708 4.79629 22.7341 5
5171 1 48.5811 1.40227 23.9935 5
5172 1 49.8193 3.19273 22.4943 5
5173 1 -3.75729 43.2435 22.8777 5
5174 1 -4.40828 2.23415 24.835 5
5175 1 -2.72431 42.2516 25.0884 5
5176 1 -1.87148 2.68358 23.7703 5
5177 1 -0.53089 42.6523 23.9234 2
5178 1 0.1501 2.82162 24.9782 5
5179 1 1.44666 42.5609 25.0931 2
5180 1 2.70282 2.65405 24.042 2
5181 1 4.04979 43.2857 25.5822 5
5182 1 1.92937 3.20045 26.2345 5
5183 1 8.70713 42.2357 27.6244 5
5184 1 6.32808 42.9209 24.486 5
5185 1 8.59243 39.7598 27.7992 5
5186 1 6.79057 42.2218 29.3741 5
5187 1 8.82799 42.2909 32.1984 5
5188 1 47.4267 7.92568 19.6197 5
5189 1 49.8408 8.91743 20.2655 1
5190 1 -3.8551 7.13323 20.1472 1
5191 1 -2.33944 10.8683 17.5817 5
5192 1 46.921 5.51729 20.5581 5
5193 1 -1.03696 11.223 22.0546 5
5194 1 49.0689 4.13697 24.972 5
5195 1 -4.62566 5.21222 21.0255 1
5196 1 -3.46557 4.33044 23.3761 5
5197 1 -1.51105 4.90857 24.4966 5
5198 1 -2.65319 6.30102 21.9873 5
5199 1 0.998205 4.87383 23.4693 5
5200 1 -0.574482 7.13208 25.6815 5
5201 1 0.887509 5.17154 25.7651 5
5202 1 8.97184 3.73315 19.6875 5
5203 1 4.87204 3.2711 24.0996 5
5204 1 6.19498 4.62492 27.6005 5
5205 1 49.1626 5.29842 19.1743 5
5206 1 46.2408 22.0097 17.39 5
5207 1 48.3907 21.7261 16.1974 5
5208 1 45.0775 20.1657 19.0942 5
5209 1 46.1916 23.6041 22.8064 5
5210 1 44.8465 23.9086 16.9066 5
5211 1 48.8328 22.839 18.2659 5
5212 1 47.6803 20.0252 17.545 5
5213 1 49.8768 20.4693 18.6495 5
5214 1 48.7622 18.6353 19.9098 5
5215 1 -4.19053 22.1642 17.2321 5
5216 1 -2.92101 20.0929 17.1078 5
5217 1 -1.89599 22.4768 18.2436 5
5218 1 -2.16694 23.5327 20.4017 5
5219 1 -1.45014 23.0014 15.759 5
5220 1 0.0556012 23.5099 19.3601 5
5221 1 41.9219 28.7319 17.9599 5
5222 1 41.332 31.6952 16.4131 5
5223 1 47.9028 23.4492 20.9836 5
5224 1 45.9646 27.1531 19.2234 5
5225 1 45.9427 22.9502 19.7263 5
5226 1 49.7241 24.9542 19.8705 5
5227 1 -3.31978 24.2074 18.4257 5
5228 1 -4.1505 29.057 20.621 5
5229 1 -3.45397 25.9349 20.6257 5
5230 1 -2.10348 28.0033 21.4397 5
5231 1 -1.10513 25.7959 21.7003 5
5232 1 -0.83286 27.7136 23.9017 5
5233 1 1.09892 25.3259 23.1369 5
5234 1 0.925604 25.3523 20.7524 5
5235 1 6.3877 27.8003 17.3045 5
5236 1 2.96173 28.461 25.6389 5
5237 1 3.28189 25.0943 22.1601 2
5238 1 5.95814 27.6411 20.1014 5
5239 1 4.50884 23.7612 19.2478 5
5240 1 7.64775 25.4818 19.7038 2
5241 1 7.53042 26.8051 21.8399 5
5242 1 41.8132 33.5819 15.0959 5
5243 1 40.7899 32.7436 18.5007 5
5244 1 43.5981 30.0783 16.9201 5
5245 1 43.3043 32.6152 17.4914 5
5246 1 45.7659 30.4122 15.7089 5
5247 1 45.6502 31.1398 17.9022 5
5248 1 47.6329 29.2675 17.8351 5
5249 1 49.048 30.2564 19.6999 5
5250 1 -3.23805 30.7054 18.8805 5
5251 1 48.1076 31.7636 21.3342 5
5252 1 -2.44915 29.6765 23.347 5
5253 1 -2.28841 30.5543 20.9335 5
5254 1 -0.213827 27.2564 20.0154 5
5255 1 -0.315886 29.025 22.0381 5
5256 1 1.49046 27.3229 22.0355 5
5257 1 1.56201 29.5099 21.0205 5
5258 1 2.0782 28.0287 19.4783 5
5259 1 -0.905225 25.1819 24.2486 5
5260 1 5.45317 26.7187 23.1459 5
5261 1 5.2456 28.3296 24.9084 5
5262 1 3.5854 28.8833 23.1371 5
5263 1 3.89898 27.5414 21.2707 5
5264 1 7.56927 29.0695 20.7421 5
5265 1 7.51738 31.1082 22.3828 5
5266 1 10.0839 27.6841 22.4617 5
5267 1 7.58892 28.4045 23.4028 5
5268 1 12.1158 27.4786 21.4171 5
5269 1 41.4654 34.8733 17.5351 1
5270 1 43.6296 36.5191 18.2608 5
5271 1 45.0046 34.0482 18.0549 5
5272 1 47.3608 33.6034 17.0304 5
5273 1 47.6086 31.6497 18.7557 5
5274 1 47.044 35.3443 18.9758 5
5275 1 46.3377 33.4303 20.1083 5
5276 1 49.3506 34.4189 17.9619 5
5277 1 -4.79376 32.5603 18.8421 5
5278 1 48.7077 33.8542 20.4888 5
5279 1 -2.26596 32.0173 22.8815 5
5280 1 -1.38243 33.7022 21.1651 5
5281 1 -0.0964695 31.6128 21.6742 5
5282 1 -0.175724 33.3186 23.3759 5
5283 1 1.59676 31.0514 23.0518 5
5284 1 1.82279 33.1126 21.7786 5
5285 1 3.8566 30.9742 21.7522 5
5286 1 1.65575 32.7722 24.7489 5
5287 1 3.49288 30.7489 24.6402 5
5288 1 3.53593 32.773 23.4454 5
5289 1 5.38373 30.8268 23.4093 5
5290 1 6.25213 32.9457 24.5072 5
5291 1 10.2178 31.6851 23.7288 5
5292 1 8.4873 33.3284 23.5707 5
5293 1 12.4395 29.7132 20.6162 5
5294 1 9.64049 29.0379 24.5669 5
5295 1 14.5358 30.8809 24.1399 5
5296 1 44.5649 38.5797 16.83 5
5297 1 46.021 35.8745 16.7899 5
5298 1 43.6569 38.0029 20.416 5
5299 1 46.0138 37.3923 19.3315 5
5300 1 46.902 38.6164 17.2054 5
5301 1 48.3778 36.7992 17.5737 5
5302 1 46.6639 40.2823 19.279 5
5303 1 49.0049 36.3952 19.946 5
5304 1 -5.01704 38.1929 18.6266 5
5305 1 -3.71636 36.3491 19.0119 5
5306 1 -4.13915 37.7435 20.8442 5
5307 1 -4.39892 35.1128 21.4114 5
5308 1 -1.83978 37.5426 19.2366 5
5309 1 0.622151 35.1944 21.6631 2
5310 1 -0.277781 37.4376 21.6429 5
5311 1 2.10794 34.971 23.2962 5
5312 1 2.57853 36.7827 21.8463 5
5313 1 4.27897 35.1866 22.1554 5
5314 1 3.67646 36.9027 24.0596 5
5315 1 4.68319 34.8596 24.4429 5
5316 1 5.84566 37.5917 23.2403 5
5317 1 6.93731 35.1112 23.0305 5
5318 1 5.76513 36.6397 25.5471 5
5319 1 7.2488 34.8245 25.395 5
5320 1 13.008 32.8966 24.3603 5
5321 1 12.2769 31.4213 22.4815 5
5322 1 12.5516 31.9306 27.6419 2
5323 1 44.132 39.9587 18.8537 5
5324 1 44.091 42.7 16.8863 5
5325 1 45.3784 40.6798 16.7856 2
5326 1 43.8987 2.22095 19.0196 5
5327 1 45.4187 42.1576 18.8274 5
5328 1 47.2006 42.1392 17.4128 5
5329 1 48.5442 40.1952 18.0078 5
5330 1 48.193 41.9046 19.7025 5
5331 1 50.0325 40.0991 20.0582 5
5332 1 -4.42882 41.8497 18.7055 1
5333 1 -2.98688 39.8106 19.1034 1
5334 1 -3.57901 41.5876 21.0705 1
5335 1 -2.0094 39.3609 21.4531 5
5336 1 -1.51297 41.3655 20.0625 5
5337 1 0.107474 39.3693 20.1492 5
5338 1 -0.132198 40.8102 22.0269 5
5339 1 1.62517 38.7135 23.0616 5
5340 1 2.24411 40.5835 21.6129 5
5341 1 3.96113 39.0215 22.6981 5
5342 1 3.09992 40.8589 24.1528 5
5343 1 4.51937 38.8629 24.8805 5
5344 1 5.84104 39.5082 21.4691 5
5345 1 8.0679 37.1237 21.816 5
5346 1 7.45152 39.6332 23.3999 5
5347 1 7.95828 37.4538 24.2631 5
5348 1 45.6714 2.36245 17.3362 5
5349 1 40.8787 6.5228 19.3936 5
5350 1 46.8291 1.95216 19.4587 5
5351 1 47.6888 3.97303 18.2563 1
5352 1 49.0155 2.07311 18.4772 5
5353 1 48.6357 3.66376 20.6087 5
5354 1 -4.96467 1.61841 20.5721 1
5355 1 -4.2488 3.33598 19.2937 1
5356 1 -2.51781 1.48587 19.4483 5
5357 1 -3.03612 3.05142 21.3825 1
5358 1 -1.55276 43.0256 21.727 1
5359 1 -0.788333 2.87304 20.1737 1
5360 1 0.599579 42.663 20.6334 5
5361 1 0.372324 2.39907 22.7536 2
5362 1 1.9207 42.476 22.8766 5
5363 1 2.87352 43.0183 19.1328 5
5364 1 4.30895 41.8403 21.2234 5
5365 1 4.32473 43.3845 23.0556 5
5366 1 5.5448 41.1407 23.157 5
5367 1 13.538 40.686 20.8766 5
5368 1 9.73663 40.516 23.9911 5
5369 1 7.6513 40.8918 25.8456 5
5370 1 42.1672 3.82882 13.6452 5
5371 1 47.345 9.24178 21.5944 5
5372 1 -4.89644 6.30945 16.1007 5
5373 1 -4.62187 4.57566 14.1611 2
5374 1 -2.00805 8.21721 20.8606 5
5375 1 49.6785 7.44305 18.4513 5
5376 1 -0.549237 9.00458 17.4872 5
5377 1 -2.48531 5.01784 19.9742 1
5378 1 -4.23697 8.22014 22.3394 5
5379 1 -0.876958 4.35494 22.3191 2
5380 1 1.11762 4.44875 20.8607 5
5381 1 -0.704852 6.95259 23.3047 5
5382 1 2.50403 2.35801 21.3599 5
5383 1 8.56986 1.88705 21.1147 5
5384 1 6.73386 2.42272 22.2867 5
5385 1 0.107659 10.5928 15.9522 5
5386 1 47.9969 25.7569 14.8705 5
5387 1 49.8129 23.7319 15.8371 5
5388 1 -4.47354 20.0419 12.832 5
5389 1 -3.07528 22.2221 12.1105 5
5390 1 -3.38294 23.662 14.0377 5
5391 1 43.7024 26.6434 17.2823 5
5392 1 44.0896 28.7184 15.0403 5
5393 1 45.4795 26.4268 15.0713 5
5394 1 43.1241 25.4637 14.949 5
5395 1 48.1338 27.1452 17.7805 5
5396 1 49.3077 25.0441 17.5094 5
5397 1 49.7773 27.1879 16.2808 5
5398 1 47.0501 24.573 12.8384 5
5399 1 -3.79547 26.5192 17.9983 5
5400 1 -1.52816 25.5532 18.8955 5
5401 1 -1.42953 26.8455 16.699 5
5402 1 -1.04007 25.1459 15.0789 5
5403 1 0.743799 25.9267 17.9698 5
5404 1 1.12581 24.2783 16.516 5
5405 1 3.41024 25.5555 17.5059 5
5406 1 0.230103 22.0426 17.0936 5
5407 1 43.7453 35.0178 15.8432 5
5408 1 43.4419 31.6688 15.0066 5
5409 1 45.4865 31.7941 13.5637 5
5410 1 47.3049 28.0178 15.4601 5
5411 1 47.7937 31.2892 16.3544 5
5412 1 -4.84696 28.7511 18.3086 5
5413 1 49.2605 29.4587 15.7973 5
5414 1 -2.65102 28.7417 16.762 5
5415 1 -4.14663 31.0617 16.769 5
5416 1 -2.26993 28.1486 19.1824 5
5417 1 -0.901146 30.1785 17.3833 5
5418 1 0.347574 28.3867 18.1005 5
5419 1 -0.461052 30.229 19.6133 5
5420 1 4.21856 27.5548 18.4045 5
5421 1 2.18954 30.096 18.2213 5
5422 1 6.30434 29.571 18.8329 5
5423 1 4.15112 29.3015 20.0002 5
5424 1 8.55445 31.1765 20.0509 5
5425 1 7.78878 31.6644 17.9778 5
5426 1 11.0495 31.2276 18.723 5
5427 1 44.7062 37.0086 14.7868 5
5428 1 45.2826 32.9348 15.893 5
5429 1 46.392 35.0077 14.3893 5
5430 1 47.616 32.8933 14.5423 5
5431 1 48.4477 35.2152 15.5335 2
5432 1 49.6734 32.9482 16.422 5
5433 1 -3.0238 34.1142 16.8638 5
5434 1 -1.93724 31.9897 16.7651 5
5435 1 -2.81516 34.3417 19.2756 5
5436 1 -1.44728 32.24 19.0955 5
5437 1 -0.51793 33.9396 17.4837 5
5438 1 0.679735 31.9571 17.8672 5
5439 1 0.409503 33.1962 19.8207 5
5440 1 2.01305 31.5298 20.0017 5
5441 1 2.6272 33.2653 18.6143 5
5442 1 4.39011 31.3653 18.8062 5
5443 1 3.94118 33.017 20.5752 5
5444 1 5.79771 28.9361 22.1759 5
5445 1 9.45971 33.4288 18.9871 5
5446 1 5.87814 30.8418 20.6237 5
5447 1 5.81661 32.9794 22.1264 5
5448 1 10.635 35.6156 18.8972 5
5449 1 13.7221 33.429 16.6573 5
5450 1 10.6798 32.2467 20.8627 5
5451 1 46.3146 37.4301 12.8245 5
5452 1 45.5954 39.0705 15.0438 5
5453 1 47.2034 37.2112 15.3815 5
5454 1 48.1131 38.9722 13.8145 1
5455 1 49.7059 36.8162 14.315 5
5456 1 49.31 38.6847 16.0329 5
5457 1 -4.43043 36.2023 16.4191 5
5458 1 -3.81429 38.3091 14.8583 5
5459 1 -1.94905 36.1863 17.2212 5
5460 1 -2.92909 38.3539 16.9759 5
5461 1 -0.729665 35.5374 19.226 5
5462 1 0.00385572 37.5606 17.7082 5
5463 1 1.45 35.4781 18.0297 5
5464 1 1.31009 37.2672 19.6676 5
5465 1 2.4595 35.0957 20.2586 5
5466 1 3.57912 36.638 18.9869 5
5467 1 4.8748 34.5484 19.2145 5
5468 1 4.93236 37.1042 20.8501 5
5469 1 6.37334 35.0369 20.8571 5
5470 1 6.74387 33.031 19.568 5
5471 1 12.7021 36.7865 19.5126 5
5472 1 9.37272 35.6531 23.5245 5
5473 1 14.239 34.8922 24.3555 5
5474 1 13.7048 34.5566 19.2664 5
5475 1 44.2753 41.0374 14.9175 5
5476 1 46.7978 41.1129 13.7953 5
5477 1 46.1214 42.7817 15.2004 2
5478 1 47.7542 40.5327 15.8584 1
5479 1 48.6317 42.8177 14.2455 5
5480 1 49.8943 40.7073 14.5697 1
5481 1 49.684 42.3114 16.5463 5
5482 1 -4.44022 40.3609 16.8727 5
5483 1 -3.17952 42.2412 15.3717 5
5484 1 -1.52253 40.3477 15.696 5
5485 1 -1.95098 41.7505 17.6181 5
5486 1 -0.728866 39.5806 17.8055 5
5487 1 0.361889 41.7966 16.345 5
5488 1 2.18569 38.9604 18.4215 5
5489 1 0.702583 41.0708 18.6828 5
5490 1 3.2438 38.578 20.4895 5
5491 1 4.8523 38.5602 17.9296 5
5492 1 6.13444 36.3292 18.2841 5
5493 1 6.64922 38.2965 19.5178 5
5494 1 7.90086 34.9861 18.9848 5
5495 1 9.52417 39.9333 18.8947 5
5496 1 10.9468 38.6905 20.4131 5
5497 1 13.8394 36.1428 21.6072 5
5498 1 46.7546 6.77162 14.9361 1
5499 1 48.4245 3.11911 13.7091 5
5500 1 47.8669 2.72151 16.1451 5
5501 1 47.5089 7.21989 12.0172 5
5502 1 -4.78264 2.15776 14.9966 5
5503 1 49.7329 4.11414 16.9661 5
5504 1 -3.57536 1.97012 17.2828 1
5505 1 -1.36636 1.92758 16.252 1
5506 1 -2.03938 3.49318 18.0622 1
5507 1 -0.17309 43.3499 18.211 5
5508 1 2.09116 1.98048 16.889 5
5509 1 1.41116 3.15922 19.1968 5
5510 1 4.36601 40.2694 19.3158 5
5511 1 6.75333 40.5247 19.0226 5
5512 1 8.63096 39.6115 21.2681 5
5513 1 9.15992 37.4867 19.3896 5
5514 1 48.5656 4.91459 15.193 5
5515 1 -2.84888 27.2008 14.4626 5
5516 1 -3.82071 29.395 14.5431 5
5517 1 -1.8881 30.3108 14.8829 5
5518 1 -0.323108 28.6064 15.4006 5
5519 1 1.86629 30.04 15.9172 5
5520 1 49.7273 31.7878 14.328 5
5521 1 -1.37559 34.0246 15.2395 5
5522 1 0.0706867 31.7364 15.437 5
5523 1 2.3097 31.6788 14.4542 5
5524 1 1.89896 33.4286 16.1117 5
5525 1 3.5436 31.7759 16.8393 5
5526 1 4.24157 33.7744 15.3591 5
5527 1 5.90845 32.3887 17.3624 5
5528 1 -2.57531 36.1611 14.7327 5
5529 1 -1.12672 37.9845 15.3137 5
5530 1 0.202521 35.8074 15.9125 1
5531 1 2.61986 35.8096 15.0189 5
5532 1 2.30753 37.2457 16.8136 5
5533 1 3.48052 35.3036 17.2026 5
5534 1 7.15133 37.015 15.2419 5
5535 1 7.41727 32.0928 15.4606 5
5536 1 7.89897 33.8772 17.2259 5
5537 1 11.152 37.8509 17.9804 5
5538 1 12.4176 34.5857 9.12911 5
5539 1 11.7401 34.2681 20.4693 5
5540 1 -2.52629 40.3243 13.7608 5
5541 1 -1.18461 42.2061 14.0944 5
5542 1 0.664111 39.229 15.739 5
5543 1 1.02589 37.6136 14.3063 5
5544 1 2.71432 41.5749 17.0976 5
5545 1 4.75175 37.1213 16.0152 5
5546 1 8.45925 33.9397 12.3862 5
5547 1 5.63069 39.1348 15.1864 5
5548 1 8.29909 40.8414 16.9482 5
5549 1 43.9491 43.0894 13.9672 5
5550 1 46.0262 3.08993 14.8056 5
5551 1 43.6876 2.93878 15.4786 5
5552 1 41.3034 7.60077 15.8402 5
5553 1 42.4268 3.5117 11.4184 5
5554 1 45.9364 9.28743 12.1713 5
5555 1 44.892 5.32892 14.4444 5
5556 1 38.6411 10.1927 9.32017 5
5557 1 41.6993 4.37145 19.2976 5
5558 1 41.0512 6.11904 13.9546 5
5559 1 48.124 6.31386 17.3005 5
5560 1 38.2088 7.96916 10.3236 5
5561 1 43.5132 5.75847 12.5692 5
5562 1 41.5673 7.98388 12.7939 5
5563 1 45.2099 5.43355 11.1797 5
5564 1 38.9191 5.81013 15.4491 5
5565 1 39.7238 6.10674 9.74413 5
5566 1 47.0095 13.6313 9.41167 5
5567 1 35.769 7.93376 11.9257 5
5568 1 48.6358 8.35674 23.5745 5
5569 1 45.9523 6.28379 18.3652 1
5570 1 47.1679 10.781 15.9968 5
5571 1 45.8439 11.088 13.8303 5
5572 1 44.9724 10.5831 17.0283 5
5573 1 47.2092 12.0055 18.2273 5
5574 1 42.3595 12.3465 13.3578 5
5575 1 48.6178 14.659 13.4834 5
5576 1 49.3538 10.6752 14.6644 5
5577 1 43.6642 7.88558 11.5835 5
5578 1 42.1979 10.5835 11.5087 5
5579 1 44.9893 12.439 9.01217 5
5580 1 45.7148 11.5388 21.2496 5
5581 1 47.6436 13.9404 16.7513 1
5582 1 47.3497 13.4438 20.0821 5
5583 1 45.6436 12.7644 16.2687 5
5584 1 47.9392 15.4878 18.5976 5
5585 1 47.5425 12.7867 14.5938 5
5586 1 44.3264 14.7854 16.2305 5
5587 1 44.772 15.4976 13.1388 5
5588 1 46.3285 14.932 14.784 1
5589 1 45.5804 17.5252 12.4207 5
5590 1 49.6533 13.0833 18.804 5
5591 1 -2.94685 16.0633 18.1409 5
5592 1 44.5322 16.2637 18.5436 5
5593 1 44.9955 18.2796 17.315 5
5594 1 49.4472 17.757 14.4701 5
5595 1 45.2049 17.1147 15.0076 5
5596 1 -3.61491 18.8909 14.9741 5
5597 1 44.0189 18.6828 11.4884 5
5598 1 46.3071 19.1544 14.0857 5
5599 1 49.9958 19.8523 16.5564 5
5600 1 47.3383 18.0886 16.0078 5
5601 1 49.116 23.6957 13.5927 5
5602 1 46.2308 20.4421 12.3204 5
5603 1 40.3791 3.98794 15.2626 5
5604 1 44.6057 3.51899 12.6411 5
5605 1 39.8235 42.7731 14.283 5
5606 1 34.7125 3.54312 13.6674 1
5607 1 42.0992 43.0256 15.6571 5
5608 1 39.4351 40.1001 13.9866 5
5609 1 35.3672 4.57291 10.374 2
5610 1 37.2477 4.14013 9.28233 5
5611 1 35.5014 5.16805 7.64159 5
5612 1 36.1486 3.87679 17.7948 5
5613 1 45.9861 43.0244 12.8849 5
5614 1 36.6268 4.67995 14.5186 1
5615 1 38.0703 3.85736 16.3889 5
5616 1 38.8882 4.97146 13.4281 1
5617 1 37.272 6.82444 13.5061 1
5618 1 40.3348 3.0089 12.8655 5
5619 1 35.2325 5.58372 12.5737 5
5620 1 37.3417 6.01618 11.2482 5
5621 1 39.3677 6.82861 12.1552 1
5622 1 37.7403 6.58788 8.22803 5
5623 1 36.6874 12.2229 9.09395 5
5624 1 40.2719 8.6084 5.75428 5
5625 1 41.1473 13.4298 8.57755 5
5626 1 37.2119 12.5361 5.76527 2
5627 1 39.1109 12.2823 7.55572 5
5628 1 37.7869 7.37501 5.26153 5
5629 1 38.8398 10.7115 5.79335 1
5630 1 38.2464 8.7384 7.1155 5
5631 1 46.778 8.42689 17.1651 5
5632 1 39.1547 7.38576 17.1666 5
5633 1 46.4359 4.85844 16.3397 5
5634 1 49.3864 8.65367 12.6338 5
5635 1 45.1469 9.00046 15.1455 5
5636 1 35.597 6.80783 14.825 5
5637 1 41.6866 9.69403 14.478 5
5638 1 41.7503 7.37957 10.4664 5
5639 1 40.0141 10.4754 13.0219 5
5640 1 37.9846 9.08841 12.6769 1
5641 1 42.6829 12.6431 10.4236 5
5642 1 38.4082 11.4906 11.529 5
5643 1 38.4543 12.9445 13.4362 5
5644 1 39.0948 13.1358 9.90695 5
5645 1 40.6155 12.7405 11.7242 5
5646 1 41.5904 15.5535 7.53197 5
5647 1 39.9446 16.4917 5.73501 5
5648 1 39.2806 14.1033 6.39675 5
5649 1 39.2315 12.7581 4.42442 5
5650 1 38.9307 11.0311 2.21616 5
5651 1 42.9709 8.72022 22.3352 5
5652 1 44.7583 6.82995 16.3116 1
5653 1 41.2162 8.7527 18.1385 5
5654 1 39.149 8.50718 19.462 5
5655 1 41.7045 10.2154 20.2412 5
5656 1 43.0671 9.07848 16.4414 1
5657 1 39.6045 10.8081 18.4957 5
5658 1 39.4821 9.72547 16.4313 5
5659 1 43.7467 11.1022 15.1562 5
5660 1 40.2186 9.16601 11.0721 1
5661 1 40.3179 11.9962 14.7609 5
5662 1 38.5224 14.5228 15.5409 5
5663 1 42.5234 15.8151 14.0536 5
5664 1 40.5073 14.0727 13.627 5
5665 1 39.238 16.481 14.0969 5
5666 1 38.6576 14.9091 11.7446 5
5667 1 41.0269 16.4028 12.3212 5
5668 1 40.6381 14.9978 10.346 5
5669 1 38.8128 15.1043 8.73237 5
5670 1 43.418 13.7567 6.7804 5
5671 1 42.3535 16.6444 5.57249 5
5672 1 44.4827 17.791 5.92922 5
5673 1 38.1097 20.169 8.20736 5
5674 1 39.6618 15.0213 3.81338 5
5675 1 35.4701 21.0219 40.8156 5
5676 1 40.2666 16.5531 38.7636 5
5677 1 40.5 8.79062 23.8083 5
5678 1 44.0325 13.0055 25.1609 5
5679 1 41.6494 11.3248 22.5121 5
5680 1 39.3054 9.78679 21.4987 5
5681 1 44.1472 9.94365 20.5207 5
5682 1 43.0745 10.3467 18.4765 5
5683 1 40.2119 12.1086 20.6757 5
5684 1 41.5709 11.2379 16.6909 5
5685 1 45.6532 13.9831 18.3405 5
5686 1 42.0115 14.6442 17.669 5
5687 1 40.7958 15.7182 15.9119 5
5688 1 42.0497 13.6067 15.3267 5
5689 1 43.4611 12.7437 17.3165 5
5690 1 43.2041 17.9334 13.3579 5
5691 1 41.1419 17.7731 14.8333 5
5692 1 39.586 18.4365 12.9455 1
5693 1 41.7553 19.8326 13.634 2
5694 1 41.2976 18.9505 11.311 5
5695 1 42.4366 19.4879 9.36597 5
5696 1 39.8733 19.1456 9.68518 5
5697 1 44.0766 17.6988 9.32905 5
5698 1 43.1825 22.8588 10.6196 1
5699 1 38.4417 21.4528 10.0632 5
5700 1 39.2157 20.7017 6.37228 2
5701 1 44.112 11.5479 22.9462 5
5702 1 45.3041 13.7381 21.703 5
5703 1 43.3202 12.2812 20.9856 5
5704 1 45.9416 15.4539 20.2972 5
5705 1 44.7718 11.8376 18.9856 5
5706 1 43.6463 14.0036 19.5444 5
5707 1 41.838 12.3 18.9209 5
5708 1 48.5079 19.7624 14.7713 5
5709 1 46.3757 16.0051 16.8708 5
5710 1 41.8785 16.7435 18.8531 5
5711 1 40.9054 18.5005 17.1964 5
5712 1 43.0583 16.9032 16.8101 5
5713 1 43.1908 19.1238 15.8823 5
5714 1 42.7681 23.2881 15.7834 5
5715 1 39.6015 19.4091 15.0407 5
5716 1 40.132 21.8041 14.3856 5
5717 1 44.5687 20.703 10.3622 5
5718 1 39.988 20.7813 11.9775 5
5719 1 40.9557 20.237 7.55473 5
5720 1 45.0164 21.6633 6.70798 1
5721 1 43.322 22.173 4.78652 5
5722 1 -4.52263 24.0569 11.5927 5
5723 1 39.5908 22.1956 8.19402 5
5724 1 46.4523 17.6312 19.0226 5
5725 1 48.9759 17.589 17.5582 5
5726 1 44.3762 18.3183 20.3869 5
5727 1 42.9215 19.0457 18.2948 5
5728 1 44.0106 20.9786 17.1837 5
5729 1 43.8613 22.6256 18.9761 5
5730 1 41.9308 20.8179 15.7822 5
5731 1 47.6145 23.8345 16.1463 5
5732 1 44.1347 19.9791 13.8995 5
5733 1 41.4541 21.6411 18.3479 5
5734 1 42.5184 22.2935 13.7877 5
5735 1 48.7343 21.48 13.1109 5
5736 1 46.7646 22.2028 10.7921 5
5737 1 44.5062 21.9858 12.5267 5
5738 1 41.2101 22.8907 11.9079 2
5739 1 40.1648 26.3765 5.39546 5
5740 1 44.6867 21.9548 14.9743 5
5741 1 46.9733 22.023 14.3643 5
5742 1 45.4001 28.2188 16.9755 5
5743 1 46.9476 26.9123 13.3187 5
5744 1 41.9584 25.1648 10.8046 1
5745 1 43.0699 24.4189 12.6762 5
5746 1 34.8799 38.0659 13.3653 5
5747 1 38.8117 41.6104 16.6183 5
5748 1 37.953 35.9937 16.6845 5
5749 1 37.1033 42.6208 15.3793 5
5750 1 36.4866 35.3022 10.5894 5
5751 1 41.5571 41.0836 14.4551 5
5752 1 35.5138 41.3762 14.0922 5
5753 1 42.1371 3.05459 17.0999 5
5754 1 37.3938 1.81978 17.2996 5
5755 1 38.1428 2.78182 14.2246 5
5756 1 40.1125 1.68176 16.7022 5
5757 1 34.0637 43.2646 14.6269 5
5758 1 34.7925 2.08194 11.4319 5
5759 1 38.4836 42.3949 10.0413 1
5760 1 36.1617 1.67835 13.3171 5
5761 1 35.42 2.8102 8.20241 5
5762 1 33.4087 2.87588 9.46771 5
5763 1 38.7773 40.9747 7.75541 5
5764 1 35.9885 7.35904 6.60847 1
5765 1 31.0186 1.80036 8.40827 5
5766 1 36.6073 10.7363 7.15974 5
5767 1 33.2971 4.09599 7.34881 5
5768 1 44.3231 4.44308 17.2913 5
5769 1 34.1315 3.76418 19.2721 1
5770 1 32.459 4.70151 17.2262 1
5771 1 37.629 8.34892 15.7477 5
5772 1 32.6051 3.71647 14.9804 1
5773 1 34.6156 4.87806 15.958 1
5774 1 33.2465 5.71185 14.1747 5
5775 1 36.8764 3.92674 12.3555 1
5776 1 33.251 4.36652 11.7927 2
5777 1 33.8334 8.28646 13.3303 5
5778 1 32.598 2.22839 12.8162 5
5779 1 34.2357 8.7755 10.3321 5
5780 1 35.4224 6.88251 9.94804 5
5781 1 33.3702 6.81499 11.4837 5
5782 1 34.2126 7.44623 8.11615 5
5783 1 34.7353 9.51887 6.79383 5
5784 1 36.844 9.55273 5.1309 1
5785 1 32.964 13.7419 5.8504 5
5786 1 33.3446 5.50921 9.45075 5
5787 1 36.0736 5.67325 4.6353 1
5788 1 33.0326 11.1965 6.46001 5
5789 1 38.5305 16.5684 40.2784 5
5790 1 37.2849 13.7756 3.07899 5
5791 1 39.6033 8.44215 14.3143 5
5792 1 34.1916 5.1335 21.3546 1
5793 1 34.8549 6.05715 18.3784 5
5794 1 37.2526 7.57784 19.0977 5
5795 1 36.7129 5.96558 16.8881 1
5796 1 35.5998 8.00569 17.2013 5
5797 1 33.0496 6.54056 16.3714 5
5798 1 35.9342 9.14691 14.0298 5
5799 1 34.1073 8.72577 15.5968 5
5800 1 31.6457 9.20917 16.9112 5
5801 1 34.2169 10.3585 11.9819 5
5802 1 36.3555 11.4723 12.9232 5
5803 1 36.7048 10.1012 10.7861 5
5804 1 34.6444 12.262 10.7306 5
5805 1 34.6338 10.5959 9.05407 5
5806 1 36.6932 13.1435 11.5377 5
5807 1 36.885 14.2588 7.56551 5
5808 1 35.0923 14.0685 9.3477 5
5809 1 33.0403 12.6182 8.38154 5
5810 1 34.9229 15.0303 6.56646 5
5811 1 35.0842 12.6202 7.07159 5
5812 1 33.0412 14.9333 8.1659 5
5813 1 35.6933 14.4445 42.2135 5
5814 1 37.2286 14.9716 5.18352 5
5815 1 34.9142 12.0675 2.13418 5
5816 1 33.6549 15.7505 4.88887 5
5817 1 33.6667 14.3861 2.90018 5
5818 1 37.6476 15.8368 42.7043 2
5819 1 33.6551 14.8026 40.4156 5
5820 1 37.2655 19.4235 36.999 1
5821 1 34.4539 6.14955 23.6306 1
5822 1 38.7474 7.43538 23.0497 5
5823 1 36.5075 6.47729 22.2843 5
5824 1 35.0044 8.72501 22.383 5
5825 1 34.6438 7.35947 20.4923 5
5826 1 37.2456 8.72145 21.3838 5
5827 1 37.6455 9.54894 18.164 5
5828 1 35.3753 9.32941 19.5295 5
5829 1 35.9347 10.4801 15.8507 5
5830 1 37.9557 11.5996 16.6911 5
5831 1 38.1238 10.7925 14.4446 5
5832 1 34.6587 12.7041 16.4618 5
5833 1 34.3007 11.016 14.3508 5
5834 1 36.6287 12.8423 15.0659 5
5835 1 36.9551 14.5302 13.4814 5
5836 1 34.7581 13.0709 13.1191 5
5837 1 35.2462 15.1953 11.5276 5
5838 1 37.774 16.9093 12.4152 5
5839 1 36.9823 15.23 10.201 5
5840 1 35.8131 17.4835 10.6621 5
5841 1 35.4246 16.247 8.41699 5
5842 1 40.0093 17.2304 8.18835 5
5843 1 37.9361 16.1248 6.98551 5
5844 1 33.7183 17.3828 6.92578 5
5845 1 35.6494 15.8668 3.61235 1
5846 1 37.895 16.9201 4.12037 5
5847 1 34.0716 16.5695 42.6553 5
5848 1 36.2819 16.6992 40.9961 5
5849 1 32.75 18.7324 2.37637 5
5850 1 37.0196 18.9023 40.6553 5
5851 1 33.1326 20.6622 41.8069 5
5852 1 32.4431 17.7409 38.3991 2
5853 1 34.9042 9.97176 24.6487 1
5854 1 39.4224 10.9169 23.7321 5
5855 1 37.0609 10.0131 23.3625 5
5856 1 35.8916 12.0668 23.9005 5
5857 1 35.4748 10.7124 21.4036 5
5858 1 37.9811 12.3204 22.0399 5
5859 1 37.9784 10.729 20.0149 5
5860 1 36.2261 12.8849 20.326 5
5861 1 36.1985 11.6233 18.321 5
5862 1 38.2259 12.8013 18.6364 5
5863 1 39.8994 13.2501 17.0262 5
5864 1 36.7862 14.1292 17.2476 5
5865 1 34.9576 14.4061 15.1388 5
5866 1 38.8973 16.8392 16.5078 5
5867 1 36.5506 16.1745 15.5857 5
5868 1 35.241 18.1032 15.5306 5
5869 1 35.2118 16.7592 13.5349 5
5870 1 37.5416 18.3155 14.2977 5
5871 1 39.2289 17.0066 10.7789 5
5872 1 35.7773 18.8735 12.5942 5
5873 1 33.4136 16.2751 10.3778 5
5874 1 37.8636 19.2493 11.3461 5
5875 1 37.6736 17.5216 8.94539 5
5876 1 33.6545 18.4323 9.18215 5
5877 1 34.4874 19.4335 6.04227 5
5878 1 36.274 17.8537 2.58761 5
5879 1 38.86 19.5405 3.81825 2
5880 1 35.0334 20.0621 2.99647 5
5881 1 34.1952 17.8257 4.3818 5
5882 1 37.4539 21.4864 4.21803 5
5883 1 35.6385 22.2599 42.7757 5
5884 1 40.376 14.6082 24.9199 5
5885 1 38.1532 13.1012 24.2035 5
5886 1 40.2924 13.3026 22.9686 5
5887 1 39.1094 15.6696 23.141 5
5888 1 36.455 13.9017 22.3253 5
5889 1 41.3211 14.7263 20.3485 5
5890 1 39.1471 14.4777 20.8312 5
5891 1 37.2001 15.877 21.4835 5
5892 1 37.0457 15.1046 19.2672 5
5893 1 39.8908 16.9226 20.5672 5
5894 1 39.8981 15.5603 18.1496 5
5895 1 37.0822 17.8211 20.0705 5
5896 1 36.7092 17.1117 18.0226 5
5897 1 38.9427 18.1681 18.6608 5
5898 1 37.8071 18.9662 16.5229 5
5899 1 35.2359 18.8149 17.7659 5
5900 1 35.8972 20.2533 14.8791 1
5901 1 38.6696 23.7076 14.7718 5
5902 1 38.0965 20.4136 13.6531 1
5903 1 36.4563 21.3304 11.7508 2
5904 1 35.7253 19.8801 10.1566 5
5905 1 41.1574 21.3473 10.0373 5
5906 1 35.7452 18.4532 8.11549 5
5907 1 34.0926 21.7079 10.5754 5
5908 1 34.5666 20.5659 7.92429 1
5909 1 36.6622 20.4835 6.44756 2
5910 1 36.7344 19.0883 4.61001 2
5911 1 35.2248 21.2802 4.82425 5
5912 1 37.7127 23.4249 2.9458 5
5913 1 38.9928 16.7116 25.4556 5
5914 1 41.5178 15.7557 22.3214 5
5915 1 40.2055 18.9062 25.2238 5
5916 1 39.845 18.0903 22.9811 5
5917 1 43.4362 16.0251 20.9632 5
5918 1 42.1079 17.7567 21.7131 5
5919 1 38.4377 20.0645 23.3947 5
5920 1 38.9191 18.8205 21.101 5
5921 1 40.819 20.1664 22.0796 5
5922 1 40.9682 19.4067 19.5376 5
5923 1 40.2156 24.0766 18.9599 5
5924 1 37.3202 20.0275 18.9353 5
5925 1 39.5099 20.3742 17.6587 5
5926 1 37.9747 21.3456 15.9878 5
5927 1 38.1475 22.1541 18.195 5
5928 1 36.0312 20.8137 17.1484 1
5929 1 42.5457 24.2393 18.0045 5
5930 1 40.5176 23.0242 16.6052 5
5931 1 36.6097 23.5714 16.2605 1
5932 1 38.7552 22.5872 12.5066 5
5933 1 39.882 25.2127 12.0937 5
5934 1 36.5153 21.6762 8.89418 5
5935 1 35.9477 25.6497 11.0068 5
5936 1 35.3933 23.9363 9.33795 5
5937 1 34.733 27.3471 7.09474 5
5938 1 42.2863 18.9783 23.8577 5
5939 1 42.7641 20.4098 20.3911 5
5940 1 39.5497 22.1527 22.253 5
5941 1 42.6272 24.6854 20.3465 5
5942 1 39.4855 21.2389 19.7779 5
5943 1 41.253 26.9867 20.9411 5
5944 1 38.2357 23.4324 20.3463 5
5945 1 38.6405 24.5208 17.2883 5
5946 1 46.3206 25.7037 17.1843 5
5947 1 44.6714 25.05 19.2051 5
5948 1 41.1919 25.266 16.4743 5
5949 1 41.0098 24.3657 14.1158 5
5950 1 37.2394 23.4857 10.8448 5
5951 1 38.1793 25.8164 10.2052 5
5952 1 36.4224 26.7261 13.4483 1
5953 1 37.0767 27.8899 10.4056 2
5954 1 47.1933 24.8641 19.2631 5
5955 1 45.1792 24.1595 14.7347 5
5956 1 30.5844 36.1965 11.8995 5
5957 1 33.2352 39.0454 11.1194 5
5958 1 31.111 38.8752 13.0513 5
5959 1 31.3818 40.0347 15.164 5
5960 1 33.2859 41.234 15.7888 5
5961 1 31.8664 40.4714 9.35838 5
5962 1 33.2822 39.8748 13.5286 5
5963 1 31.5953 41.1233 11.6433 5
5964 1 31.6056 42.0498 14.1674 5
5965 1 28.2553 41.8644 11.5186 5
5966 1 36.9314 2.09139 10.2679 5
5967 1 31.444 4.08789 8.73067 5
5968 1 29.9022 1.64836 17.8223 5
5969 1 29.6178 42.4809 15.7694 5
5970 1 31.9353 1.76523 15.9489 1
5971 1 35.3309 42.349 16.6288 5
5972 1 28.3903 2.38897 15.851 5
5973 1 28.1961 43.27 13.8342 5
5974 1 30.3571 2.39361 14.311 5
5975 1 33.7197 42.0134 12.3899 5
5976 1 28.6488 3.63666 12.6057 5
5977 1 28.7508 2.30629 10.2564 5
5978 1 30.368 42.9237 12.5434 5
5979 1 32.7612 42.9425 10.415 5
5980 1 29.1586 4.57447 9.50253 5
5981 1 31.207 3.20744 10.9674 5
5982 1 32.3822 8.63289 6.59823 5
5983 1 29.8273 9.67046 5.36238 5
5984 1 29.6817 4.71566 7.08959 5
5985 1 32.269 7.11214 4.36364 5
5986 1 32.1056 2.64188 18.5122 5
5987 1 29.4636 2.63941 20.0354 5
5988 1 28.1773 3.75502 18.1623 5
5989 1 30.5589 4.62207 18.8745 5
5990 1 30.4171 3.72215 16.5402 1
5991 1 29.143 5.56103 17.0015 5
5992 1 28.7967 4.53491 14.7799 5
5993 1 31.1414 5.59244 15.2335 5
5994 1 31.0764 4.31974 13.1487 5
5995 1 29.186 6.71197 14.124 5
5996 1 29.0812 5.66299 11.6361 5
5997 1 31.1257 6.89108 12.7037 5
5998 1 31.3157 5.62126 10.4626 5
5999 1 29.4316 7.91669 10.8342 5
6000 1 30.0156 6.79203 8.87623 5
6001 1 32.1004 7.76369 9.15882 5
6002 1 34.6851 7.88602 4.76898 5
6003 1 30.1515 8.86635 7.75675 5
6004 1 31.9096 9.90345 4.44524 5
6005 1 30.5709 11.1783 7.3536 5
6006 1 33.7964 6.1617 5.9929 5
6007 1 32.8044 12.3994 3.98747 5
6008 1 26.5556 7.86527 5.1434 5
6009 1 30.8316 12.8712 2.61775 5
6010 1 29.8296 10.1146 2.84713 5
6011 1 32.1835 10.5507 2.30852 5
6012 1 34.0286 10.2618 41.635 2
6013 1 30.9015 13.052 40.3569 5
6014 1 29.9792 3.61307 22.2521 5
6015 1 32.117 5.13679 22.8186 1
6016 1 31.9371 4.05894 20.6318 5
6017 1 30.683 6.0404 21.121 1
6018 1 28.5509 4.86896 20.2927 5
6019 1 32.865 5.97617 19.3937 1
6020 1 31.1958 7.00053 17.7076 5
6021 1 28.9286 6.6752 19.2208 1
6022 1 29.2523 7.9519 16.0979 5
6023 1 29.7054 9.17953 18.2725 1
6024 1 31.6234 8.09223 14.7637 5
6025 1 30.2344 9.91775 15.09 5
6026 1 29.9008 9.0044 13.049 1
6027 1 32.2376 10.0601 13.4326 5
6028 1 31.9357 8.7647 11.5546 5
6029 1 30.4109 11.2347 12.0475 5
6030 1 30.4059 9.94483 9.91124 5
6031 1 32.3948 11.4835 10.2272 5
6032 1 32.6889 9.79181 8.7227 5
6033 1 30.0471 12.4208 9.8965 5
6034 1 27.9117 10.6084 4.14043 5
6035 1 30.7027 13.5826 6.80155 5
6036 1 35.1844 13.6462 4.64275 5
6037 1 28.7591 14.3708 5.55836 5
6038 1 30.62 11.8441 5.02359 5
6039 1 31.5331 15.8898 6.2716 5
6040 1 31.0819 14.3335 4.6092 5
6041 1 29.692 14.9196 2.82432 5
6042 1 29.0136 13.3179 42.0179 5
6043 1 31.6429 14.8823 41.7906 5
6044 1 32.2153 17.3161 41.1361 5
6045 1 28.8002 12.3898 39.5146 5
6046 1 31.6386 15.4144 39.199 2
6047 1 31.0306 7.23715 23.3936 5
6048 1 33.1839 8.57117 23.7514 1
6049 1 32.8612 7.17047 21.8305 1
6050 1 31.1611 9.34999 22.2202 5
6051 1 31.3616 7.95969 19.9884 1
6052 1 33.3726 9.41276 20.7255 5
6053 1 33.4261 8.16587 18.4018 5
6054 1 31.8367 10.2302 18.9588 5
6055 1 29.7632 10.2094 20.2797 5
6056 1 34.0899 10.651 17.5265 5
6057 1 32.1338 11.2525 15.742 5
6058 1 30.2511 11.3178 17.2043 5
6059 1 30.729 12.362 14.1262 5
6060 1 32.9427 13.5014 14.7256 5
6061 1 32.7276 12.2183 12.6204 5
6062 1 30.8519 14.7195 14.1434 5
6063 1 30.8508 13.7844 11.9354 5
6064 1 32.9794 15.0829 13.0778 5
6065 1 32.7006 13.9768 10.6918 5
6066 1 31.0862 15.9565 11.4061 5
6067 1 28.6279 13.5489 8.28532 5
6068 1 31.0259 14.6531 9.11 5
6069 1 36.0344 17.2845 5.86848 5
6070 1 29.4629 15.9104 7.51344 5
6071 1 29.713 16.7284 4.6895 5
6072 1 32.0377 18.01 5.10436 5
6073 1 31.9525 16.1814 3.2067 5
6074 1 30.3452 18.8881 3.64222 5
6075 1 28.3066 17.8941 41.1734 5
6076 1 34.8354 18.7858 41.5326 5
6077 1 33.1779 19.2516 39.9714 5
6078 1 30.8692 19.2461 41.3623 5
6079 1 30.232 17.4774 39.483 5
6080 1 30.9729 19.7569 38.8454 5
6081 1 31.5275 10.8614 24.3424 5
6082 1 33.6492 11.7804 25.2525 1
6083 1 33.6116 10.8585 23.0275 5
6084 1 32.2539 12.9391 23.4438 5
6085 1 31.9087 11.2269 21.4228 5
6086 1 34.2292 12.9764 21.7483 1
6087 1 33.7559 11.5731 19.8104 1
6088 1 32.4288 13.8169 20.1071 5
6089 1 30.1932 12.6632 19.2846 5
6090 1 34.6107 13.5239 18.6879 5
6091 1 32.4065 12.4181 17.7778 5
6092 1 30.7753 14.8483 18.5095 5
6093 1 30.5233 13.4072 16.5389 5
6094 1 32.9832 14.5069 16.8941 5
6095 1 33.1102 16.4731 14.9332 5
6096 1 30.8517 16.0908 16.2368 5
6097 1 31.2086 16.9434 13.7551 5
6098 1 33.7976 19.0284 13.9102 5
6099 1 33.3772 17.3469 12.2986 5
6100 1 31.7007 19.1584 12.7605 2
6101 1 31.7093 18.0942 10.5928 1
6102 1 33.6886 19.5244 11.3712 5
6103 1 31.8512 16.8569 8.51573 5
6104 1 30.5083 19.1675 8.61529 5
6105 1 29.9808 18.0663 6.66518 5
6106 1 32.2965 19.0818 7.1109 5
6107 1 32.6375 20.1968 4.35746 5
6108 1 30.5558 20.2843 5.9169 5
6109 1 31.3712 21.0001 2.46788 5
6110 1 33.5235 21.9052 3.0838 5
6111 1 31.9308 21.6629 40.1549 2
6112 1 32.1483 23.0961 42.1835 1
6113 1 33.9195 21.7271 38.7905 5
6114 1 35.9672 13.2311 26.0774 5
6115 1 34.817 15.3786 26.4248 5
6116 1 32.6825 14.2039 25.7224 1
6117 1 36.8492 15.3637 24.5829 5
6118 1 34.5895 14.0954 24.1518 1
6119 1 33.2065 16.243 24.2789 1
6120 1 32.7661 14.9178 22.3597 1
6121 1 35.2413 16.446 22.9033 5
6122 1 34.5325 15.026 20.662 5
6123 1 33.2333 17.0318 21.2447 5
6124 1 33.1321 16.0071 18.9289 5
6125 1 35.0852 17.1471 19.6758 5
6126 1 34.9348 16.0028 17.2633 5
6127 1 31.0519 18.4846 21.1155 5
6128 1 31.2569 17.2168 18.3809 5
6129 1 33.0747 18.6999 19.5206 5
6130 1 33.3537 17.6306 17.108 5
6131 1 31.831 19.6052 17.4463 5
6132 1 31.5598 18.6179 15.2803 5
6133 1 33.7423 20.02 16.2602 1
6134 1 34.4761 21.0688 13.0493 2
6135 1 32.3859 20.8371 14.5028 5
6136 1 32.0566 21.5449 12.3918 5
6137 1 35.1188 23.4926 12.107 5
6138 1 32.4358 20.4572 9.3535 5
6139 1 32.9111 23.7269 11.2859 5
6140 1 31.0275 22.1022 8.03324 5
6141 1 33.2744 22.8789 8.6421 5
6142 1 32.8776 21.2353 6.47328 5
6143 1 34.0452 23.2842 5.31077 5
6144 1 31.3798 22.1941 4.84783 5
6145 1 37.7319 22.9056 6.53391 5
6146 1 34.8456 16.3485 28.7824 1
6147 1 38.4158 14.4017 26.2507 1
6148 1 37.0196 16.5302 26.799 1
6149 1 35.1705 17.5474 25.0957 5
6150 1 37.5695 18.6745 25.576 5
6151 1 37.6786 17.5187 23.3875 5
6152 1 34.1835 19.8634 25.8801 5
6153 1 33.8449 18.3806 23.1485 5
6154 1 35.8963 19.7019 24.1384 5
6155 1 35.9799 18.5176 22.0205 5
6156 1 35.2613 21.1156 22.3155 5
6157 1 33.1257 20.2244 21.5791 5
6158 1 37.4108 21.0682 21.0816 5
6159 1 35.1681 19.7092 20.3052 5
6160 1 33.4931 22.0832 20.5778 1
6161 1 31.7289 20.925 19.4525 5
6162 1 35.9307 21.9014 19.4328 1
6163 1 33.8556 20.7088 18.6185 5
6164 1 32.393 23.3069 18.7629 5
6165 1 32.2848 21.9856 16.8005 5
6166 1 34.877 22.8726 17.551 5
6167 1 34.7395 22.1966 15.2642 1
6168 1 33.4393 24.3902 15.5863 5
6169 1 33.5423 23.2382 13.6401 5
6170 1 35.308 24.9002 14.3418 1
6171 1 36.552 22.4984 13.8437 1
6172 1 33.8327 25.5736 12.4576 2
6173 1 31.7103 24.9858 9.42302 5
6174 1 33.7602 25.9512 10.1457 5
6175 1 36.0502 25.0896 6.76611 5
6176 1 34.2601 24.9412 7.81792 5
6177 1 32.5137 25.7319 5.69845 5
6178 1 35.3916 22.1606 24.8545 5
6179 1 37.3112 22.1481 23.1989 5
6180 1 36.0791 24.1462 23.7103 5
6181 1 36.0247 23.1572 21.3605 5
6182 1 38.2885 24.4193 22.632 5
6183 1 34.6047 25.397 21.8875 5
6184 1 34.336 24.2246 19.5539 5
6185 1 36.8007 25.6497 20.759 5
6186 1 36.9055 24.3004 18.5251 5
6187 1 35.3694 26.5859 18.9826 5
6188 1 33.2327 25.6811 17.9265 5
6189 1 37.2988 26.5734 17.4938 5
6190 1 35.2832 25.4737 16.6879 5
6191 1 34.071 27.9485 17.1408 1
6192 1 33.995 26.8022 14.8035 1
6193 1 36.0983 28.0519 15.7742 1
6194 1 34.7978 27.5595 11.6254 5
6195 1 34.8946 28.8049 13.8975 5
6196 1 32.3127 27.8618 10.2768 5
6197 1 35.3421 30.0411 10.8055 5
6198 1 37.512 28.0061 19.9007 5
6199 1 36.1629 28.874 17.9283 1
6200 1 37.2929 25.6234 15.2019 5
6201 1 34.5766 30.0595 16.1737 5
6202 1 39.5073 26.0364 14.1745 5
6203 1 38.7295 34.2065 14.3012 5
6204 1 24.8279 37.7252 14.8393 2
6205 1 26.8092 37.7695 13.3024 5
6206 1 28.9666 38.687 14.4028 5
6207 1 29.0756 37.8144 11.8861 5
6208 1 29.797 39.9454 11.0552 2
6209 1 25.2038 39.0193 8.91205 5
6210 1 27.5223 39.7619 12.5514 2
6211 1 27.3778 40.9775 14.6826 5
6212 1 29.4524 40.7771 13.572 5
6213 1 23.7732 41.7647 14.6868 5
6214 1 25.2493 40.1689 11.2243 2
6215 1 26.0222 41.9142 12.737 5
6216 1 27.2425 40.208 10.0446 2
6217 1 23.8024 42.6352 11.6298 5
6218 1 23.6221 41.1176 9.52203 1
6219 1 25.9296 42.5737 10.2061 2
6220 1 28.6255 2.91711 7.38188 5
6221 1 24.4568 1.60903 8.35154 5
6222 1 31.9942 6.00465 7.6613 5
6223 1 20.5964 43.3616 5.71195 5
6224 1 27.6486 42.2682 17.0032 1
6225 1 23.5672 42.1248 20.2411 1
6226 1 23.9366 42.8525 16.7835 5
6227 1 26.0669 2.25926 17.6883 5
6228 1 26.0577 1.56287 15.3482 5
6229 1 24.6713 3.31856 15.9142 5
6230 1 24.4541 2.0805 13.6326 5
6231 1 26.4213 3.43777 13.9352 5
6232 1 26.7913 2.21064 11.9049 5
6233 1 24.8147 4.5323 12.6121 5
6234 1 24.8305 2.87942 10.5146 5
6235 1 26.6632 4.38303 10.957 5
6236 1 26.7789 2.96686 8.99728 5
6237 1 25.4095 5.24405 9.34389 1
6238 1 25.2192 3.7455 7.2307 1
6239 1 27.4983 5.36364 8.10279 5
6240 1 23.7737 4.50361 5.54429 1
6241 1 25.9727 5.54265 6.24084 5
6242 1 21.6908 3.48985 4.80035 5
6243 1 30.3787 7.18792 6.04363 5
6244 1 28.552 8.2151 4.02059 5
6245 1 26.1256 42.878 20.8502 1
6246 1 27.9222 2.48478 21.6285 5
6247 1 27.7249 43.4087 19.0427 5
6248 1 24.6005 3.11404 21.1943 5
6249 1 24.6181 1.86423 19.2352 5
6250 1 26.5464 3.21482 19.9388 5
6251 1 26.787 4.25563 16.1243 5
6252 1 24.6046 4.39813 18.0433 5
6253 1 25.2308 5.43685 14.9003 5
6254 1 27.2405 6.72629 15.6581 5
6255 1 27.0534 5.88153 13.2277 1
6256 1 25.5888 7.75529 13.7235 1
6257 1 25.2875 6.61303 11.4721 1
6258 1 27.5174 7.82709 12.1043 1
6259 1 27.3935 6.4199 10.1557 1
6260 1 26.0066 8.67179 10.3584 2
6261 1 26.1525 7.13389 7.89899 5
6262 1 27.9584 8.58973 9.0273 5
6263 1 28.3898 7.21082 6.71775 5
6264 1 25.6976 9.79788 8.29631 5
6265 1 24.4883 8.22904 6.60857 5
6266 1 27.3759 9.75192 6.58736 5
6267 1 24.6641 6.63795 4.33895 5
6268 1 23.6738 10.2319 2.33749 2
6269 1 25.6897 8.98821 3.08067 5
6270 1 25.8435 11.5471 3.06023 5
6271 1 25.5831 10.3626 41.7016 2
6272 1 24.1847 12.3234 41.9835 5
6273 1 24.3584 11.2482 39.8432 1
6274 1 24.6636 4.29834 23.4696 1
6275 1 28.7954 6.01273 22.4955 5
6276 1 26.6154 4.60991 21.9665 5
6277 1 25.3181 6.85487 22.5159 5
6278 1 25.115 5.82617 20.393 5
6279 1 27.2161 6.81901 20.7418 5
6280 1 26.8424 5.59412 18.2286 5
6281 1 25.4441 7.77369 19.4293 1
6282 1 25.0793 6.49917 17.2257 5
6283 1 27.3388 7.68366 17.7821 5
6284 1 27.8432 8.72849 14.4606 1
6285 1 25.7765 8.65046 16.0068 1
6286 1 26.1466 9.77346 12.9069 2
6287 1 28.6222 10.8406 13.6228 5
6288 1 28.1825 10.0331 11.3499 2
6289 1 26.5161 12.2619 12.9141 5
6290 1 26.088 11.0415 10.4118 5
6291 1 28.1819 12.4658 11.1925 5
6292 1 28.2253 10.8515 8.99384 5
6293 1 26.5476 13.0807 9.13798 5
6294 1 26.4062 11.8189 7.2479 5
6295 1 28.5293 11.9228 6.14374 5
6296 1 25.6801 10.4888 5.31163 5
6297 1 26.7215 12.9155 4.78704 5
6298 1 25.6179 15.9024 2.50332 5
6299 1 27.5949 15.3033 3.8106 5
6300 1 28.9182 12.8537 3.8556 5
6301 1 27.7409 15.6755 42.2084 5
6302 1 25.0969 14.3038 41.4859 5
6303 1 29.6089 15.401 40.771 5
6304 1 27.3916 8.3472 23.3776 5
6305 1 29.4385 9.64373 23.8022 1
6306 1 29.1837 8.22682 21.7278 5
6307 1 25.4746 10.1762 24.1135 5
6308 1 25.6781 9.15981 21.446 5
6309 1 27.9431 10.4208 22.3384 5
6310 1 27.6142 9.16755 20.0375 1
6311 1 26.2544 11.2654 20.4439 1
6312 1 26.0629 9.79739 18.4076 1
6313 1 28.2668 11.285 18.7037 5
6314 1 27.7939 10.0218 16.4843 5
6315 1 26.3259 12.0096 17.1138 5
6316 1 26.4016 10.9913 14.8729 2
6317 1 28.4844 12.2972 15.8304 5
6318 1 28.5769 13.4606 13.5592 5
6319 1 26.5095 13.4949 14.8558 5
6320 1 27.0481 14.6325 11.936 5
6321 1 29.012 15.7113 12.5606 5
6322 1 28.9206 14.6026 10.4576 5
6323 1 27.5192 16.8235 11.1155 5
6324 1 27.4065 15.5012 8.98164 5
6325 1 29.6473 16.9952 9.83394 1
6326 1 26.7697 14.1142 6.90983 5
6327 1 25.2954 15.2349 5.00363 5
6328 1 26.3092 17.8063 4.07275 5
6329 1 27.7722 16.796 5.83561 5
6330 1 30.3308 17.132 42.4465 5
6331 1 28.2818 17.6132 2.81819 5
6332 1 26.1036 17.8305 42.1329 2
6333 1 28.8733 19.7119 42.7263 5
6334 1 28.963 20.1299 40.2591 5
6335 1 26.7642 19.9877 41.7068 2
6336 1 28.9569 18.9032 37.7074 5
6337 1 28.1388 12.7715 26.9137 5
6338 1 27.7555 11.5092 24.7197 5
6339 1 30.5287 12.8556 24.9553 5
6340 1 29.8264 11.7431 22.7917 5
6341 1 28.6449 13.8426 23.2139 5
6342 1 26.7592 12.4367 22.5836 5
6343 1 30.7098 13.6701 21.6317 5
6344 1 28.3106 12.4955 20.9437 1
6345 1 27.0541 14.4769 21.4184 2
6346 1 26.7523 13.5399 19.2735 5
6347 1 29.0063 14.758 20.09 2
6348 1 28.4204 13.7008 17.7377 5
6349 1 26.8036 15.9978 19.2418 5
6350 1 26.1682 14.628 17.369 5
6351 1 29.041 15.8677 17.8546 5
6352 1 28.6926 14.8905 15.6127 5
6353 1 27.0571 16.615 16.5253 5
6354 1 27.1129 15.9976 14.3813 5
6355 1 29.0887 17.0185 14.9153 5
6356 1 29.4216 18.2271 11.8558 1
6357 1 27.5194 17.943 13.3655 1
6358 1 28.4115 19.2204 9.99149 5
6359 1 30.4964 20.5062 10.9289 5
6360 1 28.0658 17.9126 8.07563 5
6361 1 29.0374 21.101 9.17159 5
6362 1 26.3861 18.6902 6.52779 5
6363 1 28.4462 19.9836 7.40741 5
6364 1 28.209 18.9526 5.07278 5
6365 1 26.9195 20.8846 5.42625 5
6366 1 26.77 19.757 3.25047 5
6367 1 29.4415 21.2709 3.77894 5
6368 1 29.8394 22.0414 41.5927 5
6369 1 27.6461 21.9139 42.8584 5
6370 1 27.5143 21.9501 40.4051 5
6371 1 28.5828 13.7137 28.9701 1
6372 1 32.6739 15.4126 28.0651 1
6373 1 30.6724 13.991 27.3006 5
6374 1 29.3945 16.0293 27.7706 5
6375 1 29.0073 15.1476 25.5174 5
6376 1 31.1751 16.2618 26.2868 1
6377 1 31.0779 14.9198 24.0744 5
6378 1 29.5947 17.2651 24.5321 5
6379 1 29.0453 16.0387 22.161 5
6380 1 31.5606 17.0523 23.2086 5
6381 1 31.1503 15.9627 20.6161 5
6382 1 26.8669 18.3167 24.0076 5
6383 1 26.886 17.2479 21.5993 2
6384 1 29.1116 18.6107 22.5921 2
6385 1 29.1071 17.6304 20.0027 5
6386 1 27.6476 19.5572 20.4823 1
6387 1 27.4687 18.275 18.3708 2
6388 1 29.8228 19.6156 18.7999 5
6389 1 29.5689 18.3113 16.7789 5
6390 1 28.2831 20.4605 17.1856 2
6391 1 27.5264 18.835 15.5345 2
6392 1 30.121 20.7029 15.8065 5
6393 1 29.5219 19.3338 14.0722 5
6394 1 27.9227 21.1369 14.58 5
6395 1 28.0703 20.3564 12.2448 1
6396 1 30.1736 21.4114 13.4048 5
6397 1 31.173 22.5998 10.2621 5
6398 1 28.9173 22.3137 11.6866 5
6399 1 27.1072 21.8788 7.78148 5
6400 1 29.5968 23.7449 8.57673 5
6401 1 29.2215 22.1293 6.40322 5
6402 1 27.9432 24.0636 6.90129 5
6403 1 27.8435 22.8719 4.53111 5
6404 1 30.0941 24.243 5.30379 5
6405 1 32.6102 16.6663 30.1368 1
6406 1 33.2816 17.2003 26.8966 1
6407 1 33.4012 18.419 28.9773 5
6408 1 30.1162 18.4928 26.673 5
6409 1 32.0503 19.6099 27.1024 1
6410 1 31.9509 18.4404 25.1385 5
6411 1 30.982 20.7165 25.517 5
6412 1 28.9443 19.6389 24.5118 5
6413 1 33.2491 21.0392 24.0917 5
6414 1 31.3647 19.7759 23.2615 5
6415 1 29.5375 21.7716 23.5954 1
6416 1 27.4133 20.5218 23.0422 1
6417 1 31.615 21.947 22.239 5
6418 1 29.5504 20.6188 21.4178 5
6419 1 28.206 22.6552 21.8735 1
6420 1 28.1747 21.4273 19.3801 1
6421 1 30.1533 22.9089 20.4876 1
6422 1 30.1239 21.7278 17.8035 5
6423 1 29.0724 24.0819 18.453 5
6424 1 29.151 22.78 15.9909 5
6425 1 31.2291 24.4436 16.9548 5
6426 1 31.4801 23.2094 14.6725 5
6427 1 29.6116 25.1987 15.2597 5
6428 1 29.0041 23.6426 13.7368 5
6429 1 31.8117 25.3711 13.6828 5
6430 1 30.6951 23.8453 12.3489 5
6431 1 29.3493 25.7368 12.7571 2
6432 1 29.4902 24.6411 10.5997 1
6433 1 31.5734 25.9382 11.4524 2
6434 1 31.8659 23.7884 6.97408 5
6435 1 30.143 26.8365 9.67415 1
6436 1 30.2434 25.9195 7.30768 5
6437 1 32.9372 21.9694 26.0812 1
6438 1 31.5102 22.9251 24.5645 5
6439 1 33.9574 22.9624 22.7537 5
6440 1 30.2111 25.097 24.9533 1
6441 1 30.0923 23.9861 22.9005 1
6442 1 32.3327 24.1583 21.3444 1
6443 1 30.882 26.3313 21.6639 1
6444 1 28.8149 25.0081 20.6765 1
6445 1 33.0575 26.4067 20.1913 1
6446 1 31.1002 25.162 19.4453 1
6447 1 29.8506 27.1261 19.7318 5
6448 1 29.9088 26.509 17.2215 5
6449 1 31.8133 27.4425 18.2955 1
6450 1 31.9545 26.5397 15.8229 1
6451 1 30.4754 28.4928 16.7106 5
6452 1 30.123 27.6851 14.4304 5
6453 1 32.514 28.7199 15.2851 5
6454 1 32.6652 27.5847 12.8755 5
6455 1 30.6763 29.8126 13.4163 5
6456 1 29.9455 27.9402 11.7284 5
6457 1 33.0346 29.955 12.204 5
6458 1 32.5172 26.8432 7.9216 5
6459 1 31.6196 28.4183 20.6397 1
6460 1 34.0651 28.6266 19.3916 1
6461 1 30.1062 29.3269 18.7916 1
6462 1 32.3736 29.5613 17.4397 1
6463 1 30.9645 30.5764 15.8082 5
6464 1 37.3912 24.6753 12.7818 5
6465 1 32.9504 31.674 16.5117 1
6466 1 33.0473 30.8624 14.3925 5
6467 1 31.3428 31.8862 12.1297 5
6468 1 24.0498 36.1241 13.3926 2
6469 1 22.3909 36.9315 11.4812 1
6470 1 22.5423 38.0145 13.8746 2
6471 1 25.2436 39.8806 13.8726 2
6472 1 24.2823 38.2359 12.336 2
6473 1 20.9124 38.9988 11.8079 1
6474 1 20.887 37.9186 9.66578 1
6475 1 22.9636 39.1074 10.1633 1
6476 1 23.0374 37.922 8.10138 1
6477 1 19.6684 40.2294 10.4105 1
6478 1 19.4389 38.7526 7.93793 1
6479 1 21.3791 40.2148 8.78953 1
6480 1 19.9379 41.0648 6.99545 5
6481 1 21.2305 39.7124 17.431 5
6482 1 21.3135 40.1888 14.3993 5
6483 1 21.7003 41.7801 16.3657 1
6484 1 23.0336 40.3176 12.7323 5
6485 1 19.9509 42.3684 14.7657 1
6486 1 19.8407 41.6204 12.4244 1
6487 1 21.8475 42.3169 13.2518 5
6488 1 21.7821 41.3674 10.8373 1
6489 1 20.5169 43.4553 11.1244 5
6490 1 20.229 42.3556 9.06298 5
6491 1 22.4319 43.3908 9.41815 5
6492 1 22.2817 42.0431 7.45951 5
6493 1 20.7276 2.70157 8.22677 5
6494 1 18.781 43.1041 7.43886 1
6495 1 22.9043 2.31737 6.60296 5
6496 1 18.606 41.8122 5.12417 1
6497 1 19.3735 3.26289 6.32669 5
6498 1 19.1762 2.40547 4.03054 1
6499 1 20.1042 4.66183 3.41916 5
6500 1 17.6378 4.36318 4.59054 5
6501 1 21.4297 40.9739 19.4043 1
6502 1 21.8388 41.909 21.6673 1
6503 1 23.518 40.8716 17.7925 1
6504 1 20.2201 42.9915 20.0653 1
6505 1 19.953 41.7742 17.8085 1
6506 1 22.2368 42.9041 18.4019 5
6507 1 22.4412 1.91576 15.3635 5
6508 1 20.3706 1.98145 16.7228 1
6509 1 20.5151 2.73045 13.7239 5
6510 1 23.139 4.07748 14.4534 5
6511 1 22.78 3.2778 12.3845 5
6512 1 21.2764 4.98448 12.5289 5
6513 1 21.24 3.68511 10.5538 5
6514 1 23.4449 5.05866 10.9145 1
6515 1 22.9801 3.76899 8.79655 5
6516 1 21.87 6.08152 9.35809 1
6517 1 19.5623 4.73164 8.75395 5
6518 1 23.7211 5.89306 7.72921 5
6519 1 21.5659 4.65398 6.91596 5
6520 1 20.7942 6.90943 7.36177 1
6521 1 20.6281 5.86274 5.17399 5
6522 1 22.6804 6.89609 5.78668 1
6523 1 22.6964 5.64505 3.64614 5
6524 1 21.6199 10.3247 3.67506 5
6525 1 20.4225 2.05018 22.385 5
6526 1 22.6241 3.25563 22.7836 5
6527 1 22.2158 2.37682 20.5185 5
6528 1 20.7124 3.95947 21.0785 5
6529 1 20.4484 3.04966 18.9519 1
6530 1 22.8878 4.31909 19.7994 5
6531 1 22.4673 3.06951 17.4742 5
6532 1 21.1935 5.21894 18.1769 1
6533 1 20.988 4.13529 15.8956 5
6534 1 23.1269 5.18741 16.5431 1
6535 1 23.5085 6.21362 13.2545 1
6536 1 21.5153 6.26543 14.8631 5
6537 1 21.8882 7.1157 11.8028 5
6538 1 23.9843 8.62841 11.9115 5
6539 1 23.9576 7.30671 9.72326 5
6540 1 21.6282 9.46574 11.4099 5
6541 1 20.5786 8.20043 9.53893 5
6542 1 23.7972 9.70997 9.55104 5
6543 1 22.5969 8.21759 8.17196 5
6544 1 21.55 10.253 8.18078 5
6545 1 21.3739 9.08646 6.17407 5
6546 1 23.9294 10.4923 6.8388 5
6547 1 23.4393 9.03744 4.58455 5
6548 1 22.0182 11.3534 5.82351 5
6549 1 23.8521 11.4236 4.47064 5
6550 1 22.1951 12.5247 2.72033 1
6551 1 19.8672 8.10357 26.4883 5
6552 1 21.321 5.20009 23.6043 5
6553 1 23.3648 6.52009 23.8623 5
6554 1 23.3745 5.34797 21.8517 5
6555 1 21.4174 7.39086 22.418 5
6556 1 21.4844 6.40172 20.1434 5
6557 1 23.5816 7.71701 21.1667 5
6558 1 23.2538 6.72154 18.8133 1
6559 1 21.6882 8.47709 19.1542 1
6560 1 21.6776 7.48683 16.9662 1
6561 1 23.8591 8.69675 17.5105 1
6562 1 23.5409 7.51568 15.6084 1
6563 1 22.5324 9.67418 15.739 2
6564 1 21.8827 8.32132 13.8723 2
6565 1 24.2415 9.82384 14.0973 2
6566 1 24.1647 11.1379 11.6175 5
6567 1 22.0494 10.7738 13.4332 5
6568 1 22.391 11.6538 10.0392 5
6569 1 24.986 13.3161 11.4172 5
6570 1 24.3174 12.1243 8.67627 5
6571 1 22.863 14.2197 9.80344 5
6572 1 22.4095 13.3339 7.16429 5
6573 1 25.5994 16.2068 7.07732 5
6574 1 24.4448 12.8963 6.23477 5
6575 1 20.3375 13.5982 6.15601 5
6576 1 20.9115 14.5516 3.11154 5
6577 1 22.4518 13.5254 4.81163 5
6578 1 24.455 13.7016 3.40718 5
6579 1 21.3709 16.8581 2.25787 5
6580 1 23.8656 15.4934 39.7879 5
6581 1 22.0481 9.62492 27.2067 1
6582 1 21.7719 8.57843 24.7433 5
6583 1 23.7051 10.1098 25.5309 1
6584 1 23.6997 8.96189 23.2434 5
6585 1 22.2294 10.8713 23.5777 5
6586 1 21.977 9.75016 21.3208 5
6587 1 24.4698 11.4794 21.9574 5
6588 1 24.0911 9.85836 19.709 5
6589 1 22.4694 11.8052 20.3226 5
6590 1 22.261 10.8116 18.0534 2
6591 1 24.3575 11.9887 18.5999 2
6592 1 24.2333 11.0245 16.4483 2
6593 1 22.1646 13.5011 18.1717 5
6594 1 22.2609 12.0226 15.9701 5
6595 1 24.1544 13.4067 16.7884 5
6596 1 24.0276 12.2671 14.0323 5
6597 1 22.8618 14.3798 14.6613 5
6598 1 22.6075 13.1366 12.5789 5
6599 1 24.9626 14.2337 13.2894 5
6600 1 25.2788 15.4257 10.2575 5
6601 1 23.1221 15.2878 11.9452 5
6602 1 23.5243 15.9468 8.38059 5
6603 1 25.9528 17.5819 9.28618 5
6604 1 23.1148 15.2436 6.12913 5
6605 1 24.2424 18.5435 7.79083 5
6606 1 20.8521 15.5562 5.49624 2
6607 1 23.98 17.452 5.42219 2
6608 1 23.1481 15.8539 3.83179 5
6609 1 21.8145 17.8463 4.59933 2
6610 1 24.1002 17.7925 2.9473 5
6611 1 24.1317 11.0767 27.7346 5
6612 1 26.1731 12.4065 28.2117 5
6613 1 25.68 11.0255 26.2561 5
6614 1 24.5118 13.5991 26.7113 5
6615 1 22.5613 12.1271 26.0468 5
6616 1 26.9509 13.8317 24.9441 5
6617 1 24.532 12.5061 24.5547 5
6618 1 23.3107 14.552 24.5944 5
6619 1 22.9614 13.1197 22.4225 5
6620 1 25.1535 14.3737 22.8937 2
6621 1 24.781 13.3602 20.7911 2
6622 1 22.7282 15.6524 22.4809 5
6623 1 22.2136 14.4618 20.4957 2
6624 1 24.6648 15.6643 20.7926 5
6625 1 23.9374 14.4974 18.8771 5
6626 1 22.826 16.4395 19.4729 5
6627 1 22.5467 15.5063 16.8034 5
6628 1 24.6012 16.5204 18.0994 2
6629 1 24.7996 15.6796 15.7372 5
6630 1 23.2703 17.6717 16.2466 5
6631 1 23.6039 16.7235 14.0981 5
6632 1 25.544 17.8037 14.6921 5
6633 1 25.4414 16.4828 12.4755 1
6634 1 23.7881 18.891 13.0122 5
6635 1 23.9411 17.3719 10.6493 5
6636 1 26.2799 18.8 11.5487 5
6637 1 26.3676 19.7703 8.51768 5
6638 1 24.4794 19.9489 10.2637 5
6639 1 22.6558 19.46 6.10173 5
6640 1 24.7459 20.6144 6.91339 1
6641 1 24.5742 19.8238 4.52826 2
6642 1 23.2396 21.7362 4.89608 5
6643 1 22.3065 19.9691 3.51899 2
6644 1 25.5194 21.8582 3.68582 5
6645 1 24.4014 20.1946 1.98755 2
6646 1 23.2234 22.113 2.37824 5
6647 1 25.4535 22.0721 41.8574 2
6648 1 24.7873 14.8082 28.764 5
6649 1 27.017 15.9012 29.3576 5
6650 1 26.8338 14.6586 27.3567 5
6651 1 25.5033 15.6733 25.1952 5
6652 1 27.5538 17.0465 26.1699 5
6653 1 27.2981 15.8749 23.617 2
6654 1 22.4421 17.6681 27.1036 5
6655 1 22.4977 16.7457 24.7768 5
6656 1 24.6325 18.0847 25.2176 5
6657 1 24.7784 17.1592 22.7595 5
6658 1 23.4978 19.2789 23.5842 5
6659 1 22.7911 18.1199 21.2807 5
6660 1 25.392 19.2868 22.0852 5
6661 1 25.4052 18.2921 19.7355 5
6662 1 24.0739 20.3641 20.3109 5
6663 1 23.1862 18.7848 18.7476 5
6664 1 25.9973 20.7133 18.7637 2
6665 1 25.3588 18.5774 16.9709 2
6666 1 23.9479 20.6993 17.57 2
6667 1 23.6072 19.8898 15.2581 5
6668 1 25.9271 20.7684 15.9713 5
6669 1 26.1757 20.099 13.4958 5
6670 1 24.5461 22.2742 14.4615 5
6671 1 24.2054 21.1032 12.2861 5
6672 1 26.3993 22.2999 12.8076 5
6673 1 26.6584 21.1283 10.3941 5
6674 1 25.0681 23.1462 11.1584 5
6675 1 24.9102 22.212 9.02978 5
6676 1 27.3567 23.6066 9.61076 5
6677 1 25.725 22.9277 5.95239 5
6678 1 25.7224 24.4786 7.84768 5
6679 1 23.9105 23.7897 4.40322 5
6680 1 26.6952 24.9039 5.02296 5
6681 1 26.4533 23.8716 2.62367 5
6682 1 24.9632 25.5421 3.30521 5
6683 1 24.3192 24.3309 41.9937 5
6684 1 31.3779 18.5775 30.8596 5
6685 1 26.6946 20.4168 28.5415 5
6686 1 23.1586 21.0051 28.204 1
6687 1 28.7907 20.6314 26.9347 5
6688 1 26.5184 19.2427 26.2723 5
6689 1 21.2272 19.9604 27.3086 5
6690 1 23.4876 20.239 25.8412 5
6691 1 27.4451 21.3297 25.1124 5
6692 1 25.2479 20.7233 24.2699 1
6693 1 23.8983 22.6509 24.6742 5
6694 1 24.0226 21.4968 22.3257 1
6695 1 26.1411 23.0115 23.3201 1
6696 1 26.2241 21.4842 21.236 1
6697 1 24.7889 23.7297 21.4572 1
6698 1 24.8737 22.7867 19.2417 2
6699 1 26.9571 23.5897 20.1601 1
6700 1 26.9217 22.6375 17.5639 2
6701 1 25.3767 24.9034 18.1019 2
6702 1 24.4823 22.962 16.9883 2
6703 1 27.4755 24.7203 16.8878 5
6704 1 26.7124 22.8026 15.3644 5
6705 1 24.869 24.9801 15.9244 5
6706 1 25.1628 24.4136 13.7053 5
6707 1 27.1374 25.2732 14.3978 5
6708 1 27.4303 24.309 11.9628 5
6709 1 25.944 26.3649 12.4676 5
6710 1 26.0384 25.2763 10.1066 1
6711 1 27.8506 26.7315 10.9325 5
6712 1 28.134 25.7089 8.46015 5
6713 1 26.1225 27.2769 8.90138 5
6714 1 26.3074 26.8325 6.70002 5
6715 1 28.4549 27.7462 7.69715 5
6716 1 30.4898 19.8783 28.9672 5
6717 1 29.447 22.5221 26.0937 5
6718 1 26.0027 23.6529 25.6661 5
6719 1 27.9059 24.6042 26.5277 1
6720 1 28.3014 23.6522 24.3956 1
6721 1 26.92 25.9128 24.5858 1
6722 1 24.8455 24.7527 23.6491 5
6723 1 28.9769 26.01 22.9571 1
6724 1 27.06 24.8214 22.3294 1
6725 1 25.5253 26.9492 22.6903 1
6726 1 25.4934 25.9872 20.432 1
6727 1 27.4803 27.2189 21.2469 5
6728 1 27.2787 26.1375 18.7134 5
6729 1 25.7067 28.0975 19.3124 5
6730 1 26.0175 27.1209 17.0786 2
6731 1 28.0127 28.3246 17.9047 5
6732 1 28.0022 27.018 15.552 5
6733 1 26.5828 29.3851 16.2687 2
6734 1 25.6901 27.1489 14.7755 5
6735 1 28.7256 29.4686 14.9438 5
6736 1 27.6857 27.7624 13.331 2
6737 1 26.3303 29.643 13.742 2
6738 1 26.3748 28.6398 11.5809 5
6739 1 28.491 29.8993 11.9883 2
6740 1 28.486 28.8184 9.97054 5
6741 1 26.954 30.7725 10.1752 1
6742 1 28.4407 29.0992 20.4435 5
6743 1 26.5491 30.2155 18.2196 5
6744 1 28.6099 30.2479 17.1196 1
6745 1 27.1854 31.2777 15.1073 2
6746 1 31.3099 32.4428 14.3807 5
6747 1 29.2786 31.6563 13.6902 5
6748 1 27.9624 33.6577 14.0789 2
6749 1 26.7695 31.6566 12.6241 2
6750 1 16.4734 36.0023 14.0584 5
6751 1 20.6405 37.0156 13.1551 1
6752 1 20.2464 35.9646 10.9872 1
6753 1 17.0836 36.623 10.7069 1
6754 1 14.6286 35.582 10.1504 1
6755 1 15.5605 37.7371 9.20527 5
6756 1 18.8026 36.7831 14.7721 5
6757 1 11.176 36.5733 15.8851 5
6758 1 17.1204 37.909 12.8664 5
6759 1 19.2577 38.9755 13.645 1
6760 1 19.0174 38.089 11.167 1
6761 1 14.8466 37.9993 15.051 5
6762 1 15.3553 38.7572 11.3274 1
6763 1 17.6717 40.2581 11.9097 1
6764 1 17.3895 38.9239 9.80983 5
6765 1 15.9453 40.9473 10.4839 5
6766 1 17.8934 39.762 6.20888 1
6767 1 17.927 40.9058 8.53632 5
6768 1 13.373 2.10352 8.60014 5
6769 1 14.3932 40.7412 6.03714 1
6770 1 16.5494 42.0834 6.71036 1
6771 1 16.9583 38.0819 18.4925 5
6772 1 19.3016 39.655 18.8937 5
6773 1 18.8705 37.7513 17.1536 5
6774 1 17.2625 40.5806 17.6218 5
6775 1 17.3984 38.9635 15.1752 5
6776 1 19.224 40.3375 15.9023 5
6777 1 17.9339 41.2773 14.1343 1
6778 1 15.9993 41.0776 15.9064 1
6779 1 15.9574 42.1053 12.4258 1
6780 1 18.39 43.4912 13.0129 1
6781 1 18.29 42.3102 10.8345 1
6782 1 14.7692 2.36239 12.9788 5
6783 1 13.6317 3.14165 10.5899 5
6784 1 18.9326 2.5174 9.90182 1
6785 1 16.8138 43.136 8.95715 5
6786 1 15.4898 3.17691 9.08611 5
6787 1 15.5628 2.0529 7.04807 1
6788 1 17.4051 3.62815 8.09089 5
6789 1 17.1536 2.19516 5.62003 1
6790 1 14.1242 4.40894 7.72813 1
6791 1 15.878 4.38366 6.26947 5
6792 1 18.4093 42.6634 21.4835 5
6793 1 18.1109 41.7109 19.3903 5
6794 1 16.6855 1.80088 20.0438 5
6795 1 16.2714 42.6162 17.9309 1
6796 1 18.4935 1.79663 18.3245 1
6797 1 18.1696 42.5476 16.3585 1
6798 1 16.7744 2.66572 16.774 1
6799 1 16.3742 43.4073 14.612 1
6800 1 18.5008 2.63687 15.2702 1
6801 1 19.1182 3.81338 11.9594 1
6802 1 16.9366 3.55121 13.5178 1
6803 1 16.706 2.22778 11.3121 5
6804 1 19.4423 5.98732 11.0006 5
6805 1 17.3327 4.40769 10.1563 5
6806 1 16.5298 6.7633 10.5855 5
6807 1 16.3212 5.64116 8.27215 5
6808 1 18.3959 7.01601 8.98844 5
6809 1 18.6053 5.6342 6.5875 5
6810 1 17.1216 7.83168 7.19593 5
6811 1 14.752 6.59175 6.61952 5
6812 1 19.1708 7.47741 5.47091 5
6813 1 16.8007 6.61975 5.11141 5
6814 1 17.3988 8.97071 4.35448 5
6815 1 16.852 2.26901 22.4175 5
6816 1 19.0858 4.13293 23.068 5
6817 1 18.5292 2.97125 20.8298 5
6818 1 17.2411 5.13662 21.12 5
6819 1 17.0809 3.9002 18.9134 1
6820 1 19.1713 5.18053 19.4636 1
6821 1 18.9934 3.99437 17.3681 1
6822 1 17.7972 6.11378 17.6944 5
6823 1 17.3783 5.01342 15.4205 1
6824 1 19.7374 6.15472 16.3136 5
6825 1 19.2238 4.8616 14.1063 5
6826 1 17.9597 7.24774 14.6842 5
6827 1 17.7143 5.79143 12.3962 5
6828 1 19.8438 6.94283 13.5247 5
6829 1 19.4068 8.39774 11.3028 5
6830 1 17.3621 8.20764 12.3543 5
6831 1 15.4238 7.75416 8.57238 5
6832 1 19.872 10.5115 9.69869 5
6833 1 19.1624 8.89631 7.32825 5
6834 1 17.5043 9.02308 9.49084 5
6835 1 17.7522 10.3774 6.40603 5
6836 1 19.9553 11.4146 6.90178 5
6837 1 19.6345 10.0161 4.85822 5
6838 1 16.0788 10.9519 4.67887 1
6839 1 20.258 12.3723 4.22433 5
6840 1 17.6036 6.9488 25.6268 5
6841 1 19.6412 5.66512 27.5918 5
6842 1 17.5656 6.03158 23.6239 1
6843 1 19.478 7.23005 24.1361 1
6844 1 19.3047 6.26075 21.6708 1
6845 1 17.857 8.12961 22.262 1
6846 1 17.6363 7.13402 19.7465 5
6847 1 19.8691 8.30329 20.8226 1
6848 1 19.696 7.48817 18.6351 1
6849 1 18.5022 9.44276 19.2276 5
6850 1 18.0056 8.49289 16.9972 5
6851 1 20.2174 9.46805 17.2556 2
6852 1 19.9879 8.39627 15.2767 5
6853 1 18.2589 10.7425 16.8739 5
6854 1 17.7836 9.59912 14.7574 5
6855 1 20.2795 11.0504 15.3587 5
6856 1 19.8946 9.64817 13.2415 5
6857 1 18.3582 11.6023 13.5765 5
6858 1 18.0943 10.4479 11.3228 5
6859 1 20.3488 11.6486 11.9098 5
6860 1 20.5898 12.7274 8.82291 5
6861 1 18.7507 12.6197 10.475 5
6862 1 17.9466 11.2076 8.68353 5
6863 1 21.2308 15.1067 7.939 2
6864 1 18.2135 12.3538 5.47439 5
6865 1 18.5327 13.3372 7.61395 2
6866 1 16.4914 13.1182 3.74686 1
6867 1 18.7868 14.4244 4.44359 1
6868 1 15.4435 8.91685 28.4151 5
6869 1 18.5155 12.3789 27.9331 5
6870 1 20.1152 9.59638 28.7116 5
6871 1 18.4832 10.0888 27.0812 5
6872 1 18.2279 9.15991 24.8171 5
6873 1 20.6754 10.4025 25.6866 5
6874 1 19.9772 9.22415 22.9343 5
6875 1 18.4181 11.4475 23.3888 5
6876 1 18.3135 10.3709 21.3043 2
6877 1 20.5647 11.3972 21.9076 2
6878 1 20.4862 10.6019 19.4715 2
6879 1 18.6056 12.7777 21.4611 2
6880 1 18.3497 11.9162 19.1481 2
6881 1 20.4561 13.0952 19.9065 2
6882 1 20.2399 12.1203 17.6417 5
6883 1 18.6442 14.1418 18.1269 5
6884 1 18.3555 12.858 15.7496 5
6885 1 20.5652 13.718 16.1041 5
6886 1 20.8875 13.034 13.8625 5
6887 1 19.1924 15.2039 14.5909 5
6888 1 19.0473 13.9783 12.6617 5
6889 1 21.1942 15.7206 13.1773 5
6890 1 20.839 13.9092 11.1077 5
6891 1 19.4933 16.2959 11.4917 5
6892 1 19.1827 15.1053 9.45171 5
6893 1 21.5388 16.3121 10.2164 5
6894 1 22.0242 17.4406 6.96414 5
6895 1 19.8736 17.3071 8.44853 5
6896 1 18.7939 15.4875 6.77574 2
6897 1 19.6137 17.7111 5.76133 2
6898 1 19.5181 16.3344 3.45628 1
6899 1 18.4344 18.6971 3.89802 5
6900 1 20.3106 18.7506 2.58094 1
6901 1 20.6767 11.7217 27.7998 5
6902 1 18.8121 12.0294 25.5651 5
6903 1 20.0581 13.9599 26.748 5
6904 1 20.7479 12.7188 24.2209 5
6905 1 18.4332 15.8468 25.6068 5
6906 1 18.473 14.0933 23.989 5
6907 1 20.8338 15.1309 24.7264 5
6908 1 20.7215 13.931 22.4986 5
6909 1 18.8492 16.2396 22.7087 5
6910 1 18.6508 14.8522 20.5459 1
6911 1 20.9189 16.439 21.1042 5
6912 1 20.7533 15.3468 18.8922 5
6913 1 19.1767 17.4268 19.1835 5
6914 1 19.4677 15.9648 16.809 5
6915 1 21.1551 17.3467 18.0043 1
6916 1 21.2507 16.5093 15.3274 5
6917 1 19.7781 18.4511 16.2639 5
6918 1 19.622 17.3781 13.8364 1
6919 1 21.4524 18.8175 14.6047 5
6920 1 21.8784 17.5929 12.3197 5
6921 1 20.1634 19.6671 12.7398 5
6922 1 19.6769 18.5845 10.3857 5
6923 1 21.8677 19.8502 11.1152 5
6924 1 22.0343 18.6049 9.13339 5
6925 1 20.3124 20.6437 9.4554 5
6926 1 20.2175 19.3285 7.34468 5
6927 1 22.7117 20.7858 8.64608 5
6928 1 20.3274 20.0761 4.95185 5
6929 1 21.1968 21.747 6.66038 5
6930 1 19.2158 21.0535 3.00992 1
6931 1 21.1291 22.5743 3.64775 5
6932 1 23.5498 15.6659 26.4962 5
6933 1 17.9588 17.0936 27.6918 5
6934 1 20.2782 17.7083 28.6212 1
6935 1 20.4897 16.5131 26.4634 5
6936 1 19.0677 19.0319 26.6799 5
6937 1 19.2196 17.8616 24.5571 5
6938 1 21.4504 19.1322 25.1279 5
6939 1 21.2857 17.8064 22.9988 5
6940 1 19.9579 19.9523 23.432 2
6941 1 19.1527 18.2498 21.7716 5
6942 1 21.8424 20.2324 21.7966 2
6943 1 21.0792 18.6164 20.1536 5
6944 1 19.313 20.4566 20.8278 5
6945 1 19.8482 19.5765 18.4262 1
6946 1 21.7311 20.9365 19.3183 2
6947 1 22.0386 19.7796 16.8711 1
6948 1 20.1831 21.7127 17.6276 1
6949 1 20.2651 20.5022 15.2064 1
6950 1 22.4815 22.0503 15.7513 1
6951 1 22.1847 20.7442 13.6316 1
6952 1 20.9964 22.4795 14.1666 5
6953 1 20.8841 21.9917 11.9887 5
6954 1 23.0692 23.2009 12.5373 5
6955 1 22.9329 21.8607 10.4083 5
6956 1 21.3384 24.1126 10.8839 5
6957 1 21.1444 22.7201 9.05436 5
6958 1 23.4807 24.054 9.31095 5
6959 1 23.438 23.1696 7.15044 5
6960 1 21.8633 24.975 7.77136 5
6961 1 21.7417 24.0903 5.52695 5
6962 1 24.2348 25.3579 6.02484 5
6963 1 21.835 24.476 2.55042 5
6964 1 22.7767 26.2315 4.16989 5
6965 1 22.1479 19.1345 29.3599 1
6966 1 24.464 19.1648 27.7363 5
6967 1 19.8496 22.1235 27.7557 1
6968 1 19.8393 21.1548 25.5488 1
6969 1 21.8332 22.4171 26.3222 1
6970 1 22.0423 21.1996 24.0776 1
6971 1 20.571 23.5356 24.3406 1
6972 1 20.4076 22.2613 22.4015 2
6973 1 22.5089 23.7574 22.9164 5
6974 1 22.6688 22.6743 20.635 2
6975 1 21.2113 24.4669 20.9562 2
6976 1 20.2192 22.6832 19.7405 2
6977 1 23.2685 24.8756 19.8126 2
6978 1 22.6542 22.8501 18.2441 2
6979 1 21.0578 24.9144 18.6982 2
6980 1 20.8664 23.7286 16.3966 1
6981 1 22.9425 24.8851 17.2527 2
6982 1 22.9467 24.1356 14.9385 5
6983 1 21.4007 25.7778 15.2151 5
6984 1 21.0033 24.5831 13.1408 5
6985 1 23.7656 26.239 13.7489 5
6986 1 23.896 25.1206 11.4591 5
6987 1 22.0859 27.3191 12.2297 5
6988 1 22.1272 26.121 9.87471 5
6989 1 24.1972 27.5974 10.5874 5
6990 1 23.8713 26.4484 8.48741 5
6991 1 22.6306 28.4804 8.57984 1
6992 1 22.4018 27.4814 6.24683 1
6993 1 24.6307 28.5976 7.21839 5
6994 1 25.432 21.4913 26.4071 5
6995 1 20.6539 24.5963 27.0874 5
6996 1 22.3244 24.6267 25.4061 5
6997 1 25.5649 27.9476 24.8816 5
6998 1 21.2016 25.8714 23.5017 1
6999 1 23.3991 26.831 24.2322 5
7000 1 23.3874 25.7534 21.9294 1
7001 1 21.6556 27.8526 22.5975 1
7002 1 21.6555 26.8969 20.0775 5
7003 1 23.87 27.8189 20.7709 1
7004 1 23.9012 26.7056 18.3661 2
7005 1 22.4418 28.6923 18.9394 5
7006 1 21.4888 27.025 17.6433 5
7007 1 24.1497 29.2243 17.5461 2
7008 1 23.3871 27.3326 15.9418 2
7009 1 22.1055 29.1038 16.5422 2
7010 1 22.0541 28.2809 14.3268 5
7011 1 24.5049 29.2025 15.2036 2
7012 1 24.1584 28.6761 12.9524 1
7013 1 22.6501 30.3309 13.3231 1
7014 1 22.5196 29.2717 11.1826 5
7015 1 24.8153 30.4551 11.7564 1
7016 1 24.7312 29.6707 9.28774 5
7017 1 22.8872 31.5348 10.3904 5
7018 1 22.8464 30.8181 7.61334 5
7019 1 22.4235 29.8568 21.3439 5
7020 1 24.375 29.952 20.1055 5
7021 1 23.0556 31.2562 17.9452 5
7022 1 25.036 31.2128 16.5378 2
7023 1 23.727 33.5875 16.8756 2
7024 1 22.679 31.4311 15.517 2
7025 1 25.6634 33.7491 15.5116 2
7026 1 24.8525 31.7005 14.0628 2
7027 1 23.2887 33.7214 14.353 2
7028 1 23.1208 32.4299 12.4174 1
7029 1 25.5118 33.951 13.1371 2
7030 1 23.7947 34.7452 11.5131 1
7031 1 13.7735 34.4426 13.4602 5
7032 1 12.7874 35.509 17.2382 5
7033 1 8.59952 34.8369 14.8062 5
7034 1 13.66 37.681 10.7034 5
7035 1 9.98344 38.6742 10.3528 5
7036 1 12.1731 39.6226 11.2362 1
7037 1 14.7154 34.3976 8.16501 5
7038 1 10.5431 40.7819 9.34612 1
7039 1 11.973 38.7208 9.00461 5
7040 1 8.22625 32.9757 21.3767 5
7041 1 14.6838 36.6397 18.0037 5
7042 1 10.659 35.377 13.4108 5
7043 1 13.0193 39.4076 18.8331 5
7044 1 7.46605 38.5733 17.1566 5
7045 1 14.9409 36.7176 12.6071 5
7046 1 12.9214 36.6693 13.909 1
7047 1 11.319 37.6826 12.2114 5
7048 1 10.073 39.7314 13.157 5
7049 1 13.8813 40.9084 11.8972 5
7050 1 14.0578 39.5688 9.48216 5
7051 1 10.5641 41.8741 11.791 5
7052 1 14.6903 41.5306 8.18197 5
7053 1 12.7291 41.7932 9.93398 5
7054 1 12.4141 40.7011 7.59543 1
7055 1 8.98679 42.9306 9.76252 5
7056 1 10.2871 41.1955 21.265 5
7057 1 15.396 40.6606 19.2276 5
7058 1 15.3098 39.1824 17.3095 5
7059 1 11.7411 41.5092 19.1768 5
7060 1 13.5277 38.8445 12.9807 1
7061 1 13.8231 41.4174 17.5408 5
7062 1 15.5269 39.8513 13.5952 5
7063 1 11.653 39.9618 17.0758 5
7064 1 12.7188 42.9844 12.7148 5
7065 1 14.2935 41.9648 14.243 5
7066 1 14.4832 43.2248 10.8535 5
7067 1 12.0208 42.0935 16.1568 5
7068 1 9.90208 2.04559 12.3791 5
7069 1 10.6996 43.1553 14.3016 5
7070 1 11.7524 1.91581 10.603 5
7071 1 10.4883 4.00536 11.1485 5
7072 1 8.18559 3.42435 10.6624 5
7073 1 12.2638 4.29852 9.24149 5
7074 1 13.232 2.70801 26.2053 5
7075 1 12.2422 42.6991 21.6623 5
7076 1 14.4572 1.62313 22.0715 5
7077 1 14.2912 42.8383 19.8987 5
7078 1 12.7751 2.58418 20.1274 5
7079 1 12.5726 1.79902 17.7932 5
7080 1 15.0454 2.35702 18.3125 5
7081 1 14.8341 1.62493 16.0709 5
7082 1 12.8824 3.88904 16.5027 5
7083 1 10.7607 2.32061 16.328 5
7084 1 15.1648 3.86674 15.1895 5
7085 1 12.9595 4.6808 14.4452 5
7086 1 12.8245 2.1038 14.8487 5
7087 1 12.2355 3.36025 12.6241 5
7088 1 15.6202 4.50407 11.9508 5
7089 1 13.1022 5.497 11.6287 5
7090 1 13.1339 7.66421 10.5046 5
7091 1 11.2651 6.51428 10.008 5
7092 1 14.5683 5.47339 9.89875 5
7093 1 10.7927 5.3032 7.56697 1
7094 1 11.4715 8.55175 9.09419 1
7095 1 15.5939 9.07539 5.97578 5
7096 1 13.6105 4.63164 25.0981 5
7097 1 13.0226 3.66147 22.6231 5
7098 1 15.4245 4.72764 22.9923 5
7099 1 15.0524 3.64233 20.5723 5
7100 1 13.7932 5.41858 21.2836 5
7101 1 13.289 4.74874 18.9621 5
7102 1 15.5554 6.03251 19.6062 5
7103 1 15.7376 4.76272 17.1922 5
7104 1 13.8402 7.72271 19.6464 5
7105 1 13.3261 6.29516 16.6778 5
7106 1 15.5836 6.95813 16.0556 5
7107 1 15.7889 6.00342 13.8991 5
7108 1 13.7885 8.59843 15.6461 5
7109 1 13.4623 6.79391 13.7469 5
7110 1 15.4211 8.34207 13.9795 5
7111 1 14.8621 6.95784 11.9771 5
7112 1 13.6122 8.88529 12.6701 5
7113 1 13.4519 8.96331 7.42139 5
7114 1 15.3974 9.05276 11.0525 5
7115 1 12.9556 6.66203 8.1511 1
7116 1 13.5067 9.98708 9.71976 5
7117 1 12.1007 9.83816 5.69786 5
7118 1 15.8767 10.1157 8.15183 5
7119 1 14.2469 11.004 6.39893 1
7120 1 15.5644 5.70641 25.3936 5
7121 1 13.4462 6.43056 23.2437 5
7122 1 15.8491 7.88486 24.1686 5
7123 1 15.7248 6.99964 21.9594 5
7124 1 13.761 8.96865 24.6974 5
7125 1 14.0372 8.67286 22.3655 5
7126 1 16.1888 8.77372 20.7175 5
7127 1 16.0487 7.91534 18.1522 5
7128 1 14.2337 10.3014 20.5197 5
7129 1 14.1166 9.56057 18.0465 5
7130 1 16.2866 10.403 18.9973 5
7131 1 15.9744 9.78766 16.3499 5
7132 1 14.2263 11.6318 16.8314 5
7133 1 13.9232 10.752 14.5182 5
7134 1 16.0372 11.6073 14.9676 5
7135 1 16.4334 10.3708 13.0569 5
7136 1 14.4776 12.8405 13.5546 5
7137 1 14.5416 11.1412 11.9638 5
7138 1 16.6017 12.4336 12.0638 5
7139 1 16.0475 11.2481 10.0962 5
7140 1 14.5387 13.4141 10.7212 5
7141 1 14.2976 12.1196 8.42549 1
7142 1 16.4959 13.4695 8.95791 5
7143 1 16.3387 12.2627 7.02113 1
7144 1 14.7762 14.1918 7.56316 5
7145 1 16.698 14.4045 5.9158 1
7146 1 15.7322 9.25918 25.8657 5
7147 1 13.3219 9.61767 27.2144 5
7148 1 16.3831 11.2754 27.5861 5
7149 1 16.2044 9.8469 22.9657 5
7150 1 14.3637 11.4106 25.9784 5
7151 1 14.1422 11.2313 23.3464 5
7152 1 16.3043 12.5226 23.3535 5
7153 1 16.318 11.4552 21.1672 5
7154 1 14.6283 13.1659 21.8171 5
7155 1 14.673 12.2092 18.975 5
7156 1 16.6791 13.5665 19.4721 5
7157 1 16.5567 12.3176 17.2898 5
7158 1 15.1261 14.5513 17.9933 1
7159 1 14.9622 13.6547 15.8373 1
7160 1 16.9459 14.9905 16.4728 5
7161 1 16.5207 13.8999 14.0034 5
7162 1 15.4099 15.8414 14.913 5
7163 1 15.0945 15.2909 12.4372 5
7164 1 17.2922 16.1438 13.0874 5
7165 1 17.2384 14.5776 10.9469 5
7166 1 15.7173 17.3794 11.4905 5
7167 1 15.2585 15.7911 10.2486 5
7168 1 17.6489 17.048 10.3068 5
7169 1 16.8094 15.4964 8.09554 5
7170 1 15.7359 17.7337 8.97577 5
7171 1 15.31 16.6368 6.11746 5
7172 1 17.483 17.7819 7.26932 5
7173 1 17.5392 16.5991 4.96405 1
7174 1 16.1602 18.8777 4.84054 5
7175 1 14.2728 11.0899 28.6744 5
7176 1 15.1223 13.2592 27.6242 5
7177 1 17.089 13.3421 25.8454 5
7178 1 15.8511 15.428 26.5741 5
7179 1 14.7398 13.7867 24.5656 5
7180 1 16.5472 15.6937 24.0965 5
7181 1 16.7377 14.4417 21.7972 5
7182 1 14.9869 16.7059 22.459 5
7183 1 15.1525 15.5578 20.3918 5
7184 1 17.3611 16.8547 20.9834 5
7185 1 17.1648 15.8979 18.8106 5
7186 1 15.4607 17.918 19.4167 5
7187 1 15.7596 16.9897 17.207 1
7188 1 17.6181 18.2653 17.7028 5
7189 1 17.7442 17.0879 15.2714 5
7190 1 16.0913 19.1024 15.9103 1
7191 1 15.7158 18.1061 13.8625 5
7192 1 18.2317 19.6446 14.3614 1
7193 1 18.1018 18.6146 12.3765 5
7194 1 16.3032 20.4239 12.6745 1
7195 1 16.5233 19.2954 10.6034 5
7196 1 18.5941 20.7236 11.1247 1
7197 1 18.1002 19.4518 8.67921 5
7198 1 17.021 21.7038 9.30192 5
7199 1 16.0045 19.9076 7.37564 5
7200 1 19.1539 21.6735 7.58971 2
7201 1 18.309 20.0057 5.84826 2
7202 1 16.8018 22.0909 6.49838 5
7203 1 16.9549 21.0968 4.10019 5
7204 1 18.8907 22.4408 5.00901 5
7205 1 16.9938 17.5971 25.5846 2
7206 1 14.7986 18.0127 24.6691 5
7207 1 17.8595 19.9112 24.7338 2
7208 1 16.9719 18.1716 23.052 5
7209 1 15.4786 20.0985 23.6243 2
7210 1 15.5778 19.322 21.4321 5
7211 1 17.7133 20.5566 22.4343 5
7212 1 17.544 19.002 19.8453 5
7213 1 16.3797 21.0472 20.3013 5
7214 1 16.2242 20.202 18.0475 5
7215 1 18.193 21.6465 18.9918 1
7216 1 18.1672 20.5852 16.7605 1
7217 1 16.5798 22.5045 17.0156 5
7218 1 16.2972 21.4178 14.9021 5
7219 1 18.6811 22.8109 15.6756 1
7220 1 18.4047 21.8237 13.5304 1
7221 1 17.1458 23.6963 13.9295 1
7222 1 17.1948 22.6477 11.4498 1
7223 1 19.1131 23.6699 12.1925 5
7224 1 18.9483 22.6815 9.9595 1
7225 1 17.7185 24.6647 10.4494 1
7226 1 17.4403 23.8822 8.16344 5
7227 1 19.4757 24.8527 9.06797 5
7228 1 19.5911 23.807 6.86706 5
7229 1 18.2416 25.7355 7.27184 5
7230 1 17.6518 24.6462 5.09137 5
7231 1 20.4224 26.0464 5.70934 5
7232 1 16.6837 26.6452 5.7112 5
7233 1 17.6491 20.9963 26.9974 5
7234 1 13.9019 22.1676 26.3626 2
7235 1 16.3976 23.3429 27.1837 5
7236 1 18.5051 22.2569 23.8698 5
7237 1 18.5906 23.3442 26.1614 5
7238 1 16.0932 22.0884 22.5856 5
7239 1 19.1145 24.3311 22.7498 2
7240 1 18.0622 22.7609 21.3715 5
7241 1 16.8774 24.8183 21.4276 5
7242 1 16.5911 23.6154 19.2412 5
7243 1 18.9676 24.8879 20.0767 2
7244 1 18.6936 23.977 17.8174 1
7245 1 17.0605 25.9405 18.1973 1
7246 1 16.9409 25.0444 16.1296 1
7247 1 19.2566 26.0614 16.7548 5
7248 1 19.1425 24.7488 14.5253 1
7249 1 17.8044 26.8496 14.892 1
7250 1 17.7188 25.935 12.6322 1
7251 1 20.0015 26.8779 13.4489 5
7252 1 19.8522 25.9888 11.32 5
7253 1 18.4375 28.1575 11.8189 1
7254 1 18.2416 27.1583 9.86349 1
7255 1 20.6558 27.9757 10.2631 5
7256 1 20.2834 27.2549 8.04129 5
7257 1 15.3254 30.1204 8.24795 5
7258 1 16.8166 28.0767 7.78809 1
7259 1 18.9873 29.036 8.5531 1
7260 1 18.8148 28.0134 6.226 1
7261 1 17.4825 29.9586 6.66169 1
7262 1 21.1343 26.6042 25.9289 5
7263 1 17.5999 26.4776 23.0923 5
7264 1 19.727 27.5651 23.9894 5
7265 1 19.5636 26.5329 21.5371 2
7266 1 17.8053 28.5803 22.3346 5
7267 1 17.332 26.8434 20.3967 2
7268 1 20.0422 28.8258 20.8105 5
7269 1 19.2206 26.9117 18.8646 5
7270 1 17.7568 29.0461 19.4106 5
7271 1 17.6119 27.9698 17.121 5
7272 1 20.2112 29.0434 18.3717 5
7273 1 19.9278 28.2746 16.0162 5
7274 1 18.5422 30.4427 16.3248 5
7275 1 18.715 29.2103 14.1245 5
7276 1 20.6838 30.5138 14.4932 1
7277 1 20.3719 29.4943 12.3211 5
7278 1 18.9439 31.4644 13.0488 5
7279 1 18.7433 30.2248 10.8091 5
7280 1 20.8664 31.6152 11.5889 5
7281 1 20.8549 30.3988 9.51537 5
7282 1 19.3954 32.5522 9.75518 1
7283 1 19.3221 31.3777 7.60804 1
7284 1 20.0734 33.5387 6.08181 1
7285 1 18.6921 31.085 18.5207 2
7286 1 20.6741 31.2653 17.0531 2
7287 1 19.0502 32.449 15.3273 1
7288 1 21.1375 33.6382 15.9666 2
7289 1 21.273 32.52 13.7384 1
7290 1 19.8362 34.7295 14.319 1
7291 1 19.3384 33.6911 11.9549 1
7292 1 21.7112 34.7439 12.9333 1
7293 1 21.4868 33.6407 10.4837 1
7294 1 10.4443 34.0312 10.8289 1
7295 1 9.25121 36.5511 11.5139 5
7296 1 3.1333 39.2305 16.0266 5
7297 1 13.0469 37.8097 16.5967 5
7298 1 9.08606 37.1678 13.9547 5
7299 1 8.20181 39.2819 14.5985 5
7300 1 7.08971 35.971 12.7082 5
7301 1 13.6346 32.3362 14.4413 1
7302 1 11.559 38.5097 14.5712 1
7303 1 6.48031 40.6112 12.9518 5
7304 1 5.03662 41.8124 11.2189 5
7305 1 7.58057 42.9351 11.6656 5
7306 1 8.41255 40.7688 10.8069 5
7307 1 6.42056 1.95718 9.70633 5
7308 1 5.74471 40.6939 16.9509 5
7309 1 13.6277 39.9892 15.3097 1
7310 1 4.64366 2.39083 20.7826 5
7311 1 11.9663 40.9385 13.8964 1
7312 1 10.3242 42.0752 17.5736 1
7313 1 10.0876 40.9272 15.1942 1
7314 1 7.24613 42.848 17.5223 5
7315 1 6.28833 42.2355 15.1186 5
7316 1 8.63451 43.1392 15.6949 5
7317 1 8.64626 41.5441 13.3509 5
7318 1 6.0483 2.90312 16.0941 5
7319 1 5.22009 43.1298 13.328 5
7320 1 8.61126 4.39058 12.7201 5
7321 1 7.59999 2.05002 13.8454 5
7322 1 5.18828 5.4279 12.5207 5
7323 1 7.02901 5.54317 10.7329 5
7324 1 9.28939 4.6285 22.0032 5
7325 1 8.78211 42.0337 19.618 5
7326 1 10.6908 1.52342 19.5218 5
7327 1 12.8048 43.4305 23.931 1
7328 1 6.76696 2.1154 19.6192 5
7329 1 11.03 3.79701 18.3089 5
7330 1 9.01834 2.26396 17.9512 5
7331 1 9.21445 5.34865 18.077 5
7332 1 8.34654 3.74234 16.2745 5
7333 1 10.8581 5.21269 16.324 5
7334 1 10.4169 3.65307 14.438 5
7335 1 9.16738 5.83869 14.7852 1
7336 1 6.91769 4.73875 14.3193 5
7337 1 11.0559 5.48763 12.9904 5
7338 1 9.51168 6.6538 11.7328 5
7339 1 7.43653 6.54403 12.8938 5
7340 1 9.5799 8.77457 10.7101 5
7341 1 10.7219 2.76198 22.2961 5
7342 1 9.11513 7.63047 25.27 5
7343 1 6.62928 4.14227 17.9987 5
7344 1 11.3138 5.51872 22.4868 5
7345 1 11.5918 4.28743 20.6986 5
7346 1 9.18025 7.14357 22.5964 5
7347 1 10.3097 6.23889 20.5374 5
7348 1 12.1408 7.79177 21.3975 5
7349 1 11.6992 6.46221 18.8436 5
7350 1 9.74215 8.19998 19.4417 5
7351 1 9.63961 7.4174 16.8645 5
7352 1 11.9342 8.15765 17.2945 5
7353 1 11.6105 7.23294 15.2769 5
7354 1 9.81987 9.4076 15.5925 5
7355 1 9.85027 7.99395 13.7036 5
7356 1 11.7062 9.4788 14.1535 5
7357 1 11.6027 7.46942 12.2386 5
7358 1 9.76039 10.2952 13.1126 5
7359 1 8.02507 9.50951 8.76321 5
7360 1 11.7434 9.90113 11.3334 5
7361 1 10.3492 10.7155 9.56286 5
7362 1 8.83525 11.8442 7.83103 1
7363 1 11.9771 11.0557 7.90654 1
7364 1 11.1178 8.89333 26.2043 5
7365 1 11.401 7.74226 23.8215 5
7366 1 9.92776 9.78383 24.4875 5
7367 1 9.96569 9.10197 22.0451 5
7368 1 12.0696 10.1226 22.8368 5
7369 1 11.891 9.08969 19.3921 5
7370 1 10.2138 10.8959 20.7525 5
7371 1 10.1001 10.8733 18.4069 5
7372 1 12.2435 11.3458 18.7723 5
7373 1 11.9461 10.6398 16.5331 5
7374 1 10.6804 12.793 17.4825 5
7375 1 10.3953 11.5527 14.9623 5
7376 1 12.7255 12.676 15.2082 5
7377 1 12.3206 11.4682 12.9665 5
7378 1 10.7581 13.6852 13.7944 1
7379 1 10.3108 12.3052 11.8701 5
7380 1 12.4517 13.6742 12.2815 5
7381 1 12.2978 12.1589 10.341 5
7382 1 10.8019 14.2396 10.5954 1
7383 1 9.00033 12.9189 10.0537 1
7384 1 12.9341 14.0387 9.11595 5
7385 1 10.9042 13.0986 8.46005 1
7386 1 13.3753 15.2618 5.48224 1
7387 1 9.49437 10.7516 26.6052 5
7388 1 11.752 11.4009 27.5941 5
7389 1 12.2716 10.8442 25.1705 5
7390 1 10.7441 12.8158 25.8022 5
7391 1 10.1903 11.6287 23.3515 5
7392 1 12.4727 12.7996 23.7943 5
7393 1 12.1451 11.9084 21.2914 5
7394 1 11.2698 13.8945 22.1259 5
7395 1 11.0402 13.3939 19.7686 5
7396 1 13.2921 14.3127 20.094 5
7397 1 12.6595 13.4138 17.6827 5
7398 1 11.4538 15.4057 18.2708 5
7399 1 11.2306 14.8519 15.8995 5
7400 1 13.3814 15.5103 16.491 5
7401 1 13.3287 15.1379 14.0661 5
7402 1 11.6655 17.091 14.7802 5
7403 1 11.1666 15.8315 12.7182 1
7404 1 13.6252 17.2445 12.8003 5
7405 1 12.9197 15.6745 11.0176 5
7406 1 11.7044 17.7564 11.4995 5
7407 1 11.6464 16.4225 9.13798 5
7408 1 13.7638 18.1321 10.3044 5
7409 1 13.702 16.3494 8.1475 5
7410 1 12.1219 18.5494 8.44469 5
7411 1 14.1158 18.7677 6.79266 5
7412 1 12.9945 13.662 26.4302 5
7413 1 11.368 15.143 24.2422 5
7414 1 13.9133 16.0384 25.2638 5
7415 1 13.4512 14.954 22.6269 5
7416 1 12.3473 17.1855 22.9542 5
7417 1 11.8062 16.0639 20.6325 5
7418 1 13.6913 17.7779 20.9259 5
7419 1 13.6924 16.5369 18.5461 5
7420 1 12.1051 18.7108 19.2199 5
7421 1 12.068 17.5071 17.0872 5
7422 1 14.1981 18.7786 17.4442 1
7423 1 13.9221 17.7866 15.2876 5
7424 1 12.2969 19.5884 15.656 5
7425 1 12.0349 19.3766 13.2714 5
7426 1 14.4855 20.1569 14.1538 5
7427 1 14.2807 19.3931 12.0166 5
7428 1 12.7492 21.4194 12.3225 5
7429 1 12.2649 19.9815 10.3715 5
7430 1 14.8167 21.6081 10.7882 5
7431 1 14.2794 20.1236 8.98715 5
7432 1 13.0315 22.2271 9.27212 5
7433 1 12.9632 20.9405 7.1288 1
7434 1 14.8417 22.3477 7.77347 5
7435 1 14.8414 20.7923 5.77821 1
7436 1 13.5096 23.0885 5.85155 5
7437 1 15.6896 23.2094 4.5796 5
7438 1 16.1191 21.8288 25.1821 5
7439 1 13.2164 19.1041 22.8183 5
7440 1 11.7975 21.6703 23.0077 5
7441 1 12.0118 20.1814 21.0705 5
7442 1 14.1369 21.1908 21.8683 1
7443 1 14.2697 20.1558 19.5726 1
7444 1 12.5 22.2668 19.9209 5
7445 1 12.4125 20.8239 18.0254 1
7446 1 14.5634 22.2742 18.363 5
7447 1 14.1695 20.8127 16.4083 5
7448 1 12.8124 23.1768 16.8046 1
7449 1 12.8907 21.9468 14.4516 5
7450 1 14.9408 23.3554 15.0073 5
7451 1 14.9054 22.4628 13.1012 1
7452 1 13.4311 24.436 13.5642 5
7453 1 13.3322 23.8422 11.2088 1
7454 1 15.6127 24.8275 11.841 1
7455 1 15.398 23.8081 9.72188 5
7456 1 13.9662 25.8095 10.2368 1
7457 1 13.8728 24.4637 8.03479 1
7458 1 16.1711 25.8891 8.80483 5
7459 1 15.6545 24.2393 6.67832 5
7460 1 12.4004 26.6456 8.50659 5
7461 1 12.0319 25.4536 6.43479 5
7462 1 14.5341 26.7154 7.37816 1
7463 1 19.2692 25.4299 25.1477 5
7464 1 14.1245 22.4533 23.9444 2
7465 1 12.8166 23.5584 21.9809 5
7466 1 14.8814 24.665 23.1155 5
7467 1 14.5385 23.1272 20.5549 5
7468 1 13.3432 25.5343 21.1112 5
7469 1 13.0756 24.557 19.0074 1
7470 1 15.3973 25.5431 19.7948 5
7471 1 15.1876 24.5908 17.3822 1
7472 1 13.8638 26.7875 17.9547 5
7473 1 13.6337 25.5361 15.5591 5
7474 1 15.5111 26.9469 16.3757 1
7475 1 15.5644 25.506 14.0751 1
7476 1 14.1912 28.0079 14.568 1
7477 1 13.9723 26.8748 12.6055 1
7478 1 16.1925 28.1381 13.1776 1
7479 1 16.1597 27.1023 10.8946 1
7480 1 14.6387 28.7764 11.6527 5
7481 1 11.1804 30.0797 11.1633 5
7482 1 16.738 29.2218 10.109 5
7483 1 14.7327 28.3297 9.34838 5
7484 1 17.4588 31.2749 8.84338 5
7485 1 13.1748 28.7801 7.8123 5
7486 1 13.1552 30.146 9.74345 5
7487 1 15.1743 28.8271 6.14935 1
7488 1 14.8804 24.1013 25.3184 5
7489 1 12.6107 24.3519 24.1931 2
7490 1 15.5271 26.7513 24.3776 5
7491 1 15.3748 26.7888 21.8756 5
7492 1 16.6455 30.8926 22.9552 2
7493 1 13.9999 27.583 20.1593 5
7494 1 15.9008 29.0868 21.0246 2
7495 1 15.7564 27.913 18.8579 1
7496 1 14.4913 30.1074 19.4455 5
7497 1 14.4906 29.1355 17.107 5
7498 1 16.4641 30.2824 17.889 1
7499 1 16.3545 29.3082 15.4477 5
7500 1 15.055 31.18 16.2181 1
7501 1 14.9587 30.32 13.9028 5
7502 1 16.9144 31.7192 14.6684 5
7503 1 17.0846 30.1185 12.4046 5
7504 1 15.5688 32.6966 12.6137 5
7505 1 13.0576 31.3238 12.1261 5
7506 1 17.6423 32.3106 11.3565 5
7507 1 13.785 33.4807 10.9141 5
7508 1 11.1797 30.772 13.9831 5
7509 1 13.8198 32.2095 8.55354 5
7510 1 18.1383 33.4099 7.744 1
7511 1 14.3678 31.3089 21.6779 5
7512 1 13.185 31.2911 17.6812 5
7513 1 17.2154 32.7019 17.0258 1
7514 1 15.6627 33.7543 15.2281 5
7515 1 17.864 35.0659 16.1421 5
7516 1 17.7165 33.67 13.6014 1
7517 1 14.5015 35.628 15.7431 5
7518 1 12.6914 35.5634 11.5131 5
7519 1 18.6445 35.8827 12.4818 1
7520 1 18.1171 34.3998 10.2403 1
7521 1 16.0407 33.093 9.75623 5
7522 1 1.95559 41.3834 14.4646 5
7523 1 0.79737 1.97064 15.1396 5
7524 1 6.31005 38.1285 13.2305 5
7525 1 -0.215224 2.15809 12.7622 5
7526 1 4.10368 2.04066 11.4848 5
7527 1 5.17753 42.5762 18.8303 5
7528 1 4.19055 2.68342 17.7501 5
7529 1 4.25184 40.9303 14.4774 5
7530 1 0.431354 3.64433 17.096 5
7531 1 -0.688379 4.07617 14.727 5
7532 1 4.15748 1.43631 15.5483 5
7533 1 3.12358 41.2836 12.4788 5
7534 1 2.45061 1.70032 12.9675 5
7535 1 4.8996 3.28879 13.9981 5
7536 1 6.30324 3.09276 11.9636 5
7537 1 4.87405 4.1586 10.0111 5
7538 1 3.29573 4.28323 12.131 5
7539 1 6.78891 42.1637 20.7795 5
7540 1 6.31854 4.55809 20.2795 5
7541 1 3.7127 4.14954 19.8952 5
7542 1 8.03385 5.83981 20.2459 5
7543 1 2.78671 3.45962 15.4332 5
7544 1 5.02741 5.85325 18.6109 5
7545 1 -0.619854 5.94387 13.521 5
7546 1 7.42388 6.00061 16.6447 5
7547 1 4.95336 4.99073 16.2062 5
7548 1 1.6848 8.49948 15.8258 5
7549 1 3.4452 5.44481 14.278 5
7550 1 5.68502 6.62548 14.8794 5
7551 1 5.13659 6.55462 9.96737 2
7552 1 5.70808 7.95455 12.0018 5
7553 1 3.53944 4.42353 22.5501 5
7554 1 6.24391 6.20525 22.2732 5
7555 1 4.23807 6.22417 20.8473 5
7556 1 2.21755 6.19671 19.604 5
7557 1 5.84187 9.17683 18.4265 5
7558 1 7.49642 7.36872 18.4164 5
7559 1 0.441544 8.51427 21.764 5
7560 1 5.66882 7.95958 16.4264 5
7561 1 8.02013 9.57867 17.1022 5
7562 1 7.77407 8.26853 14.9944 5
7563 1 2.07218 11.584 16.3186 2
7564 1 5.54367 9.19486 14.3516 5
7565 1 7.944 10.5621 14.4674 5
7566 1 7.93202 9.05753 12.3485 5
7567 1 6.12759 11.2387 12.9928 5
7568 1 6.1036 10.0547 10.8957 5
7569 1 8.12932 11.1613 11.4828 5
7570 1 6.74866 12.077 9.34609 5
7571 1 7.61229 8.87561 23.3977 5
7572 1 7.70019 8.21531 21.0286 5
7573 1 8.20145 10.6064 21.9549 5
7574 1 8.12418 10.034 19.4147 5
7575 1 7.00218 13.1285 23.2299 5
7576 1 6.66888 11.3953 18.2694 5
7577 1 8.62728 12.8607 19.0776 5
7578 1 8.77925 11.8418 16.635 5
7579 1 6.67751 13.6123 17.466 5
7580 1 6.58039 12.6045 15.1638 5
7581 1 9.06295 13.9586 15.6057 5
7582 1 8.42306 12.6842 13.3271 1
7583 1 7.01051 14.4363 13.6773 1
7584 1 6.9476 13.1212 11.5316 1
7585 1 8.78106 14.5568 12.0086 1
7586 1 9.5432 15.252 8.78832 1
7587 1 7.98686 17.4601 8.8951 1
7588 1 11.4253 15.2961 6.98604 5
7589 1 8.13907 11.6412 24.6272 5
7590 1 4.62623 13.0472 24.6334 5
7591 1 9.21261 13.8971 23.7407 5
7592 1 9.07925 12.8287 21.4076 5
7593 1 7.69818 14.8734 21.8459 2
7594 1 6.80338 12.8921 20.2854 5
7595 1 9.49176 15.07 20.3564 5
7596 1 9.14824 15.0783 18.0477 5
7597 1 7.87521 17.0838 18.203 2
7598 1 7.43626 15.7424 16.226 5
7599 1 9.67038 17.0461 16.1887 5
7600 1 9.24646 15.6146 14.2964 1
7601 1 8.15026 17.7478 14.5805 5
7602 1 7.75222 16.4935 12.6241 1
7603 1 9.94937 17.5787 13.004 1
7604 1 9.78274 16.5986 10.7899 1
7605 1 8.26011 18.5343 11.3471 5
7606 1 9.90062 17.3616 7.73115 5
7607 1 10.1109 18.5031 9.80389 1
7608 1 8.66684 19.5066 7.97605 1
7609 1 9.99887 17.3983 24.6853 5
7610 1 9.76146 16.1611 22.507 1
7611 1 8.30667 18.2301 23.1851 5
7612 1 8.40445 17.2554 20.6642 2
7613 1 10.3821 18.377 21.2908 5
7614 1 10.1032 17.3884 19.0303 5
7615 1 8.51108 19.1705 19.3483 5
7616 1 7.85376 19.0388 16.743 5
7617 1 10.4803 19.3369 17.3276 5
7618 1 10.1483 19.0968 14.9242 5
7619 1 8.64323 20.8108 15.5793 5
7620 1 8.68604 19.7219 13.2451 5
7621 1 10.6735 21.4737 14.0852 5
7622 1 10.4837 20.133 11.9326 5
7623 1 9.1372 21.9903 12.3171 5
7624 1 8.66964 20.6509 10.2343 5
7625 1 11.0584 22.522 10.6149 5
7626 1 10.7971 20.764 8.86369 5
7627 1 9.25045 23.1847 8.98236 5
7628 1 11.5602 23.0581 7.60335 1
7629 1 11.1185 19.3334 23.4432 5
7630 1 9.28434 20.4083 21.9574 5
7631 1 10.2813 22.4498 21.1489 5
7632 1 10.379 20.7285 19.4187 5
7633 1 8.81463 23.5578 19.3165 5
7634 1 8.63328 21.405 17.9424 5
7635 1 10.8293 23.0999 18.2678 5
7636 1 10.9556 21.5399 16.5418 5
7637 1 9.09889 23.2243 16.7143 5
7638 1 9.02526 23.2018 14.3794 5
7639 1 11.4431 23.9476 15.2665 5
7640 1 11.3459 23.4368 12.8551 5
7641 1 9.56338 25.097 13.2606 5
7642 1 9.5885 24.3865 11.0707 5
7643 1 11.8273 25.8555 11.7472 5
7644 1 11.7404 24.6109 9.62454 1
7645 1 10.2524 26.5256 10.0984 1
7646 1 8.18093 25.3059 9.29189 5
7647 1 10.8348 28.8364 9.18419 5
7648 1 10.1231 25.1411 8.03002 1
7649 1 9.3493 30.6716 9.4946 5
7650 1 10.9286 27.3943 6.76751 5
7651 1 11.166 25.4156 22.3745 1
7652 1 10.9668 24.5942 20.2052 5
7653 1 9.85373 26.6606 20.303 5
7654 1 9.75658 25.5006 18.1628 5
7655 1 11.7366 27.1989 19.1967 5
7656 1 11.7526 25.3097 17.1211 5
7657 1 10.4589 27.7596 17.4297 5
7658 1 9.97896 25.9727 15.5228 5
7659 1 12.4928 27.7527 16.0637 5
7660 1 11.9188 26.6266 13.9107 5
7661 1 10.4725 28.3425 14.5406 5
7662 1 10.3715 27.8002 12.038 5
7663 1 12.3776 29.0559 13.084 5
7664 1 12.4506 27.99 10.4556 5
7665 1 6.0433 27.64 14.9684 5
7666 1 8.43148 28.4981 10.5468 5
7667 1 8.92715 29.6501 12.8661 5
7668 1 14.9878 31.2983 10.683 5
7669 1 13.3227 26.4869 23.4368 5
7670 1 9.97452 29.0546 19.9318 5
7671 1 9.93769 30.0425 22.0354 5
7672 1 12.5399 29.1888 17.9322 5
7673 1 8.98727 29.6485 17.9674 5
7674 1 10.9349 29.8199 16.5192 5
7675 1 11.8572 32.2486 16.0467 5
7676 1 9.02283 36.3949 17.0735 5
7677 1 9.75559 32.1227 16.9136 5
7678 1 10.2321 34.4178 16.22 5
7679 1 13.0843 30.2041 15.5185 5
7680 1 5.06162 30.8727 12.7438 5
7681 1 6.74003 29.9923 14.1434 5
7682 1 5.12154 35.6391 13.9824 5
7683 1 7.69645 31.7839 12.8735 5
7684 1 9.56535 32.7735 14.397 5
7685 1 11.8828 33.4387 18.1347 5
7686 1 12.3027 34.6372 15.2118 5
7687 1 9.92616 31.7589 12.0509 5
7688 1 -2.6362 2.13445 13.82 5
7689 1 -2.91456 3.91169 15.7573 5
7690 1 -2.53153 4.54034 13.0076 5
7691 1 -2.66688 6.17322 14.576 5
7692 1 -0.49955 4.22728 11.3761 5
7693 1 -3.56956 8.72209 11.3935 5
7694 1 1.45254 2.94014 11.2735 5
7695 1 2.95513 4.88458 17.5731 5
7696 1 -1.31135 5.64089 16.7251 5
7697 1 -1.72932 7.18209 18.8174 5
7698 1 -0.900401 7.85715 15.6994 5
7699 1 1.29508 5.69136 15.4455 5
7700 1 1.4661 3.97244 13.471 5
7701 1 1.27983 7.08756 13.6659 5
7702 1 -2.07308 6.65473 11.4334 1
7703 1 3.8068 7.88828 13.9555 5
7704 1 3.44918 6.85852 11.6935 2
7705 1 0.647122 9.85037 10.2856 5
7706 1 3.82431 9.08341 10.4549 1
7707 1 -0.480194 5.00956 18.9751 5
7708 1 0.986279 8.26002 19.2947 5
7709 1 2.09655 6.42415 21.8584 5
7710 1 5.6119 7.74517 20.0298 5
7711 1 -0.203023 6.39923 20.8044 5
7712 1 0.683284 6.79458 17.3312 5
7713 1 4.34545 10.6335 19.0866 5
7714 1 3.43654 6.85126 16.3126 5
7715 1 1.95885 9.6734 17.7164 5
7716 1 3.84605 9.55975 16.5526 5
7717 1 4.35664 11.5766 15.0945 5
7718 1 4.20601 10.2499 12.5035 1
7719 1 2.99584 12.4372 12.8314 1
7720 1 2.88235 11.1755 10.634 5
7721 1 4.84647 12.171 11.0215 1
7722 1 5.06643 8.76357 22.7206 5
7723 1 6.10783 10.2308 20.8454 5
7724 1 1.35074 10.9541 22.4834 5
7725 1 -0.0713184 11.5587 18.1282 5
7726 1 4.38174 13.2857 19.3424 5
7727 1 6.13137 10.3943 16.2067 5
7728 1 2.31896 12.0055 18.5488 5
7729 1 2.76874 13.5764 14.7782 5
7730 1 4.78795 11.9495 17.2607 5
7731 1 4.96345 13.5542 13.2833 5
7732 1 5.01296 14.2081 15.6721 5
7733 1 3.40257 14.1269 11.3801 5
7734 1 7.65891 15.2113 10.1875 1
7735 1 5.256 14.2313 9.56281 1
7736 1 4.1126 16.2276 9.76187 1
7737 1 4.60122 12.7406 22.3311 5
7738 1 3.90613 10.4905 21.4829 5
7739 1 7.06023 15.0827 19.4207 5
7740 1 5.33529 15.5944 17.9096 5
7741 1 3.5409 15.3382 19.536 5
7742 1 3.22553 14.0458 17.2161 5
7743 1 5.86964 17.9414 16.3553 5
7744 1 5.96822 16.6305 14.2657 5
7745 1 3.91953 16.336 16.2681 5
7746 1 5.36918 15.2535 11.8345 5
7747 1 5.96909 18.3132 12.603 5
7748 1 6.11245 17.3345 10.3894 1
7749 1 4.42994 19.357 10.6045 1
7750 1 6.71629 19.4998 9.13549 1
7751 1 3.86808 17.3929 21.0981 5
7752 1 6.54029 16.894 22.0895 5
7753 1 7.23448 19.2674 21.2513 5
7754 1 5.86585 17.2057 19.9075 5
7755 1 6.09183 21.6138 19.2684 5
7756 1 4.25735 17.9347 18.11 5
7757 1 6.39643 19.088 18.4398 5
7758 1 6.54491 19.6504 14.6865 5
7759 1 4.31903 20.1752 15.7633 5
7760 1 4.32983 18.2298 14.1177 5
7761 1 7.11054 21.6298 13.6668 5
7762 1 6.75032 20.24 11.505 5
7763 1 4.7015 20.466 13.0378 5
7764 1 5.21894 22.8474 12.1856 5
7765 1 7.52137 22.7592 10.7769 5
7766 1 8.02606 21.5675 20.4246 5
7767 1 4.07736 20.4073 18.0237 5
7768 1 2.17223 19.8605 14.7437 5
7769 1 4.59757 23.1145 16.8749 5
7770 1 6.37516 21.0814 16.6183 5
7771 1 4.80513 22.1569 14.5769 5
7772 1 7.51861 25.4797 14.7079 5
7773 1 7.64403 25.6228 17.134 5
7774 1 7.25613 23.703 12.9346 5
7775 1 3.14883 24.4195 15.3009 5
7776 1 0.908109 24.6379 13.78 5
7777 1 6.43423 26.1412 12.7895 5
7778 1 8.45032 26.3447 11.6046 5
7779 1 4.16868 25.7173 11.7175 5
7780 1 5.77302 27.0659 10.5039 5
7781 1 6.95532 23.3632 18.06 5
7782 1 5.66976 25.7968 18.5267 5
7783 1 8.16856 27.5892 18.8159 5
7784 1 8.36476 27.8536 16.2903 5
7785 1 6.67594 23.3604 15.623 5
7786 1 6.3278 30.0398 16.3933 5
7787 1 8.15772 27.5453 13.7193 5
7788 1 2.63923 27.6799 16.8122 5
7789 1 5.1636 24.6594 14.0546 5
7790 1 5.42901 25.5728 16.1309 5
7791 1 3.57769 26.595 14.1784 5
7792 1 1.34399 32.0499 12.3166 5
7793 1 3.06318 29.745 12.702 5
7794 1 4.60036 28.1089 12.5966 5
7795 1 6.90207 29.2894 8.91683 5
7796 1 8.75501 30.321 15.5723 5
7797 1 4.25584 29.6466 17.1449 5
7798 1 5.06959 31.5487 15.181 5
7799 1 4.25825 28.8628 14.9545 5
7800 1 -3.06489 7.72235 16.8379 1
7801 1 -3.42138 5.48329 17.7321 5
7802 1 -4.47087 9.6535 16.755 1
7803 1 -4.11936 6.56739 12.6534 1
7804 1 47.5962 9.14134 13.9959 1
7805 1 -1.85293 8.2623 13.4354 1
7806 1 -3.03385 8.99927 18.9322 1
7807 1 -2.39723 9.67218 15.3435 5
7808 1 -1.90988 9.10497 23.1054 5
7809 1 0.0825714 9.3474 14.0371 5
7810 1 48.7645 8.23985 16.084 5
7811 1 2.04449 9.11945 12.0867 1
7812 1 2.25805 10.3823 14.4589 5
7813 1 0.800246 11.2152 12.4091 1
7814 1 -0.622444 13.2409 12.5217 5
7815 1 3.6319 7.77244 18.2566 5
7816 1 -3.24019 10.2922 20.954 5
7817 1 1.80104 10.3123 20.1488 5
7818 1 -4.24398 8.18272 14.5579 5
7819 1 -0.766403 14.5926 14.613 5
7820 1 -3.55344 10.5563 13.5274 5
7821 1 0.815508 13.6621 16.5087 5
7822 1 1.38894 14.4427 13.1796 1
7823 1 -2.84704 14.8079 16.179 5
7824 1 47.1179 16.7386 13.6738 5
7825 1 2.08537 16.2337 11.4807 5
7826 1 1.23768 14.5849 19.0484 5
7827 1 0.858365 12.5616 14.4869 1
7828 1 0.384276 18.0748 17.9064 5
7829 1 1.5857 15.5746 15.5166 5
7830 1 2.2033 16.2894 17.8346 5
7831 1 3.83647 15.6675 13.5746 5
7832 1 2.13766 17.3698 13.9257 5
7833 1 0.0135409 16.5725 13.4428 5
7834 1 3.92839 17.5793 11.9101 5
7835 1 2.41227 18.4102 10.1551 1
7836 1 0.45448 18.3607 11.6052 5
7837 1 2.94323 20.581 9.14083 1
7838 1 4.65563 19.5377 20.1928 5
7839 1 -1.79192 19.6115 21.8329 5
7840 1 1.71794 20.2559 17.3786 5
7841 1 2.35873 18.8104 19.1535 5
7842 1 -0.986247 19.8189 15.7198 5
7843 1 2.56417 19.4633 12.3211 5
7844 1 2.62906 18.3269 16.6331 5
7845 1 1.10337 22.972 11.8252 5
7846 1 3.08276 24.0406 12.8218 5
7847 1 3.40429 21.7955 11.3069 2
7848 1 1.30159 22.5977 9.65782 5
7849 1 5.77459 21.04 21.6206 5
7850 1 3.88977 21.7354 20.1153 5
7851 1 1.75402 21.0922 19.8069 5
7852 1 2.27681 23.3738 18.1834 5
7853 1 -1.0545 23.0952 12.9856 5
7854 1 2.7071 22.0562 16.0307 5
7855 1 2.68605 21.7041 13.5582 5
7856 1 -0.920881 22.4775 10.5021 5
7857 1 -0.288644 24.7346 11.4109 5
7858 1 1.76346 24.6605 10.4761 5
7859 1 2.16166 26.5771 12.2243 5
7860 1 -0.219807 26.7184 13.3199 5
7861 1 1.0528 26.3788 15.7411 5
7862 1 1.89211 28.39 14.2333 5
7863 1 48.7335 9.75415 18.3542 5
7864 1 -1.16416 11.4237 14.2755 5
7865 1 48.8349 6.80856 13.9816 1
7866 1 44.3252 13.5745 14.3611 5
7867 1 -3.4817 11.7567 15.7236 5
7868 1 48.7049 15.7431 15.5477 5
7869 1 49.2976 11.8113 16.7972 5
7870 1 -1.21373 12.6084 16.2893 1
7871 1 -5.12792 15.2169 17.466 5
7872 1 -1.13068 13.9165 18.3895 5
7873 1 -2.28626 16.8065 14.8334 5
7874 1 -4.28925 16.8356 16.2503 5
7875 1 -4.18721 15.6915 14.2062 5
7876 1 -0.854383 21.4702 20.7801 5
7877 1 0.125399 17.8105 15.4724 5
7878 1 -2.34209 21.1304 14.2461 5
7879 1 -4.41892 21.5514 15.0778 5
7880 1 0.528478 20.6384 13.0184 5
7881 1 -1.04988 18.8248 13.6889 5
7882 1 -1.56196 20.6117 12.1104 5
7883 1 -2.45059 24.441 10.6144 5
7884 1 0.660123 22.4276 14.7294 5
7885 1 -2.07569 17.9627 11.0329 5
7886 1 -3.31228 25.3561 16.1918 5
