32
Lattice="6.974288500574551 0.0 0.0 0.0 6.974288500574551 0.0 0.0 0.0 6.974288500574551" Properties=species:S:1:pos:R:3:initial_magmoms:R:1 pbc="T T T"
Ni       0.00000000       0.00000000       0.00000000       0.60000000
Ni       0.00000000       1.74357213       1.74357213       0.60000000
Ni       1.74357213       0.00000000       1.74357213       0.60000000
Ni       1.74357213       1.74357213       0.00000000       0.60000000
Ni       0.00000000       0.00000000       3.48714425       0.60000000
Ni       0.00000000       1.74357213       5.23071638       0.60000000
Ni       1.74357213       0.00000000       5.23071638       0.60000000
Ni       1.74357213       1.74357213       3.48714425       0.60000000
Ni       0.00000000       3.48714425       0.00000000       0.60000000
Ni       0.00000000       5.23071638       1.74357213       0.60000000
Ni       1.74357213       3.48714425       1.74357213       0.60000000
Ni       1.74357213       5.23071638       0.00000000       0.60000000
Ni       0.00000000       3.48714425       3.48714425       0.60000000
Ni       0.00000000       5.23071638       5.23071638       0.60000000
Ni       1.74357213       3.48714425       5.23071638       0.60000000
Ni       1.74357213       5.23071638       3.48714425       0.60000000
Ni       3.48714425       0.00000000       0.00000000       0.60000000
Ni       3.48714425       1.74357213       1.74357213       0.60000000
Ni       5.23071638       0.00000000       1.74357213       0.60000000
Ni       5.23071638       1.74357213       0.00000000       0.60000000
Ni       3.48714425       0.00000000       3.48714425       0.60000000
Ni       3.48714425       1.74357213       5.23071638       0.60000000
Ni       5.23071638       0.00000000       5.23071638       0.60000000
Ni       5.23071638       1.74357213       3.48714425       0.60000000
Ni       3.48714425       3.48714425       0.00000000       0.60000000
Ni       3.48714425       5.23071638       1.74357213       0.60000000
Ni       5.23071638       3.48714425       1.74357213       0.60000000
Ni       5.23071638       5.23071638       0.00000000       0.60000000
Ni       3.48714425       3.48714425       3.48714425       0.60000000
Ni       3.48714425       5.23071638       5.23071638       0.60000000
Ni       5.23071638       3.48714425       5.23071638       0.60000000
Ni       5.23071638       5.23071638       3.48714425       0.60000000
