31
Lattice="6.974288500574551 0.0 0.0 0.0 6.974288500574551 0.0 0.0 0.0 6.974288500574551" Properties=species:S:1:pos:R:3:initial_magmoms:R:1:energies:R:1:forces:R:3 energy=1.4953561481741433 free_energy=1.4953561481741433 stress="0.0018711399401293222 -4.6288709744941407e-17 -4.3863574562145075e-17 -4.6288709744941407e-17 0.0018711399401289451 -1.15891196405074e-16 -4.3863574562145075e-17 -1.15891196405074e-16 0.0018711399401289872" pbc="T T T"
Ni      -0.00000000       1.73256242       1.73256242       0.60000000       0.12467018       0.00000000       0.00013771       0.00013771
Ni       1.73256242      -0.00000000       1.73256242       0.60000000       0.12467018       0.00013771       0.00000000       0.00013771
Ni       1.73256242       1.73256242       0.00000000       0.60000000       0.12467018       0.00013771       0.00013771       0.00000000
Ni       0.00000000      -0.00000000       3.48714425       0.60000000       0.04621696      -0.00000000      -0.00000000       0.00000000
Ni       0.00000000       1.73256242       5.24172608       0.60000000       0.12467018      -0.00000000       0.00013771      -0.00013771
Ni       1.73256242       0.00000000       5.24172608       0.60000000       0.12467018       0.00013771      -0.00000000      -0.00013771
Ni       1.74210329       1.74210329       3.48714425       0.60000000      -0.00682273      -0.00017649      -0.00017649      -0.00000000
Ni       0.00000000       3.48714425       0.00000000       0.60000000       0.04621696      -0.00000000       0.00000000       0.00000000
Ni      -0.00000000       5.24172608       1.73256242       0.60000000       0.12467018       0.00000000      -0.00013771       0.00013771
Ni       1.74210329       3.48714425       1.74210329       0.60000000      -0.00682273      -0.00017649      -0.00000000      -0.00017649
Ni       1.73256242       5.24172608       0.00000000       0.60000000       0.12467018       0.00013771      -0.00013771      -0.00000000
Ni       0.00000000       3.48714425       3.48714425       0.60000000      -0.01478625      -0.00000000       0.00000000       0.00000000
Ni      -0.00000000       5.24172608       5.24172608       0.60000000       0.12467018       0.00000000      -0.00013771      -0.00013771
Ni       1.74210329       3.48714425       5.23218521       0.60000000      -0.00682273      -0.00017649       0.00000000       0.00017649
Ni       1.74210329       5.23218521       3.48714425       0.60000000      -0.00682273      -0.00017649       0.00017649       0.00000000
Ni       3.48714425      -0.00000000      -0.00000000       0.60000000       0.04621696       0.00000000      -0.00000000      -0.00000000
Ni       3.48714425       1.74210329       1.74210329       0.60000000      -0.00682273      -0.00000000      -0.00017649      -0.00017649
Ni       5.24172608       0.00000000       1.73256242       0.60000000       0.12467018      -0.00013771       0.00000000       0.00013771
Ni       5.24172608       1.73256242       0.00000000       0.60000000       0.12467018      -0.00013771       0.00013771      -0.00000000
Ni       3.48714425       0.00000000       3.48714425       0.60000000      -0.01478625       0.00000000       0.00000000       0.00000000
Ni       3.48714425       1.74210329       5.23218521       0.60000000      -0.00682273       0.00000000      -0.00017649       0.00017649
Ni       5.24172608      -0.00000000       5.24172608       0.60000000       0.12467018      -0.00013771       0.00000000      -0.00013771
Ni       5.23218521       1.74210329       3.48714425       0.60000000      -0.00682273       0.00017649      -0.00017649       0.00000000
Ni       3.48714425       3.48714425       0.00000000       0.60000000      -0.01478625       0.00000000       0.00000000       0.00000000
Ni       3.48714425       5.23218521       1.74210329       0.60000000      -0.00682273       0.00000000       0.00017649      -0.00017649
Ni       5.23218521       3.48714425       1.74210329       0.60000000      -0.00682273       0.00017649       0.00000000      -0.00017649
Ni       5.24172608       5.24172608      -0.00000000       0.60000000       0.12467018      -0.00013771      -0.00013771       0.00000000
Ni       3.48714425       3.48714425       3.48714425       0.60000000      -0.01310535      -0.00000000      -0.00000000       0.00000000
Ni       3.48714425       5.23218521       5.23218521       0.60000000      -0.00682273       0.00000000       0.00017649       0.00017649
Ni       5.23218521       3.48714425       5.23218521       0.60000000      -0.00682273       0.00017649       0.00000000       0.00017649
Ni       5.23218521       5.23218521       3.48714425       0.60000000      -0.00682273       0.00017649       0.00017649       0.00000000
