32
Lattice="8.079323807577772 0.0 0.0 0.0 8.079323807577772 0.0 0.0 0.0 8.079323807577772" Properties=species:S:1:pos:R:3 pbc="T T T"
Al       0.00000000       0.00000000       0.00000000
Al       0.00000000       2.01983095       2.01983095
Al       2.01983095       0.00000000       2.01983095
Al       2.01983095       2.01983095       0.00000000
Al       0.00000000       0.00000000       4.03966190
Al       0.00000000       2.01983095       6.05949286
Al       2.01983095       0.00000000       6.05949286
Al       2.01983095       2.01983095       4.03966190
Al       0.00000000       4.03966190       0.00000000
Al       0.00000000       6.05949286       2.01983095
Al       2.01983095       4.03966190       2.01983095
Al       2.01983095       6.05949286       0.00000000
Al       0.00000000       4.03966190       4.03966190
Al       0.00000000       6.05949286       6.05949286
Al       2.01983095       4.03966190       6.05949286
Al       2.01983095       6.05949286       4.03966190
Al       4.03966190       0.00000000       0.00000000
Al       4.03966190       2.01983095       2.01983095
Al       6.05949286       0.00000000       2.01983095
Al       6.05949286       2.01983095       0.00000000
Al       4.03966190       0.00000000       4.03966190
Al       4.03966190       2.01983095       6.05949286
Al       6.05949286       0.00000000       6.05949286
Al       6.05949286       2.01983095       4.03966190
Al       4.03966190       4.03966190       0.00000000
Al       4.03966190       6.05949286       2.01983095
Al       6.05949286       4.03966190       2.01983095
Al       6.05949286       6.05949286       0.00000000
Al       4.03966190       4.03966190       4.03966190
Al       4.03966190       6.05949286       6.05949286
Al       6.05949286       4.03966190       6.05949286
Al       6.05949286       6.05949286       4.03966190
