31
Lattice="8.079323626574238 0.0 0.0 0.0 8.079323626574238 0.0 0.0 0.0 8.079323626574238" Properties=species:S:1:pos:R:3:forces:R:3 energy=-2125.241404711667 free_energy=-2125.241404711667 stress="0.004657813581906818 -0.0 -0.0 -0.0 0.004657813581906818 -0.0 -0.0 -0.0 0.004657813581906818" pbc="T T T"
Al       0.00000000       1.98538700       1.98538700       0.00000000      -0.00000257      -0.00000257
Al       1.98538700       0.00000000       1.98538700      -0.00000257      -0.00000000      -0.00000257
Al       1.98538700       1.98538700       0.00000000      -0.00000257      -0.00000257       0.00000000
Al       0.00000000       0.00000000       4.03966190       0.00000000       0.00000000       0.00000000
Al       0.00000000       1.98538700       6.09393681       0.00000000      -0.00000257       0.00000257
Al       1.98538700       0.00000000       6.09393681      -0.00000257      -0.00000000       0.00000257
Al       2.01753392       2.01753392       4.03966190      -0.00000694      -0.00000694      -0.00000000
Al       0.00000000       4.03966190       0.00000000       0.00000000       0.00000000       0.00000000
Al       0.00000000       6.09393681       1.98538700       0.00000000       0.00000257      -0.00000257
Al       2.01753392       4.03966190       2.01753392      -0.00000694       0.00000000      -0.00000694
Al       1.98538700       6.09393681       0.00000000      -0.00000257       0.00000257       0.00000000
Al       0.00000000       4.03966190       4.03966190       0.00000000       0.00000000       0.00000000
Al       0.00000000       6.09393681       6.09393681       0.00000000       0.00000257       0.00000257
Al       2.01753392       4.03966190       6.06178988      -0.00000694      -0.00000000       0.00000694
Al       2.01753392       6.06178988       4.03966190      -0.00000694       0.00000694       0.00000000
Al       4.03966190       0.00000000       0.00000000       0.00000000       0.00000000       0.00000000
Al       4.03966190       2.01753392       2.01753392       0.00000000      -0.00000694      -0.00000694
Al       6.09393681       0.00000000       1.98538700       0.00000257      -0.00000000      -0.00000257
Al       6.09393681       1.98538700       0.00000000       0.00000257      -0.00000257       0.00000000
Al       4.03966190       0.00000000       4.03966190       0.00000000       0.00000000       0.00000000
Al       4.03966190       2.01753392       6.06178988       0.00000000      -0.00000694       0.00000694
Al       6.09393681       0.00000000       6.09393681       0.00000257      -0.00000000       0.00000257
Al       6.06178988       2.01753392       4.03966190       0.00000694      -0.00000694       0.00000000
Al       4.03966190       4.03966190       0.00000000       0.00000000       0.00000000       0.00000000
Al       4.03966190       6.06178988       2.01753392       0.00000000       0.00000694      -0.00000694
Al       6.06178988       4.03966190       2.01753392       0.00000694      -0.00000000      -0.00000694
Al       6.09393681       6.09393681       0.00000000       0.00000257       0.00000257       0.00000000
Al       4.03966190       4.03966190       4.03966190       0.00000000       0.00000000       0.00000000
Al       4.03966190       6.06178988       6.06178988       0.00000000       0.00000694       0.00000694
Al       6.06178988       4.03966190       6.06178988       0.00000694       0.00000000       0.00000694
Al       6.06178988       6.06178988       4.03966190       0.00000694       0.00000694      -0.00000000
