<UPF version="2.0.1">
  <PP_INFO>
    Generated using "atomic" code by A. Dal Corso  v.6.7MaX
    Author: ADC
    Generation date:  2Oct2026
    Pseudopotential type: USPP
    Element: Al
    Functional: PBE
    Suggested minimum cutoff for wavefunctions:  36. Ry
    Suggested minimum cutoff for charge density: 145. Ry
    The Pseudo was generated with a Scalar-Relativistic Calculation
    L component and cutoff radius for Local Potential:  2   1.9000
    Valence configuration: 
    nl pn  l   occ       Rcut    Rcut US       E pseu
    3S  1  0  2.00      2.000      2.100    -0.569826
    3P  2  1  1.00      2.000      2.100    -0.199338
    Generation configuration:
    3S  1  0  2.00      2.000      2.100    -0.569824
    3S  1  0  0.00      1.400      2.100     6.000000
    3P  2  1  1.00      2.000      2.100    -0.199338
    3P  2  1  0.00      1.400      2.100     6.000000
    3D  3  2 -2.00      1.900      1.900    -0.300000
    Pseudization used: troullier-martins
    <PP_INPUTFILE>
@input
title='Al',
zed=13.0,
rel=1,
config='[Ne] 3s2 3p1 3d-2.0 4f-2.0',
iswitch=3,
dft='PBE'
/
@inputp
pseudotype=3,
file_pseudopw='Al.pbe-n-rrkjus_psl.0.1.UPF',
author='ADC',
lloc=2,
which_augfun='PSQ',
rmatch_augfun=1.8,
nlcc=.true.,
tm=.true.
/
5
3S  1  0  2.00  0.00  2.00  2.10  0.0
3S  1  0  0.00  6.00  1.40  2.10  0.0
3P  2  1  1.00  0.00  2.00  2.10  0.0
3P  2  1  0.00  6.00  1.40  2.10  0.0
3D  3  2 -2.00 -0.30  1.90  1.90  0.0
    </PP_INPUTFILE>
  </PP_INFO>
    <!-- END OF HUMAN READABLE SECTION -->
  <PP_HEADER generated="Generated using 'atomic' code by A. Dal Corso  v.6.7MaX" author="ADC" date=" 2Oct2026" comment="" element="Al" pseudo_type="USPP" relativistic="scalar" is_ultrasoft="true" is_paw="false" is_coulomb="false" has_so="false" has_wfc="false" has_gipaw="false" paw_as_gipaw="false" core_correction="true" functional="PBE" z_valence="3.0000000000000000" total_psenergy="-5.1988862620379122" wfc_cutoff="36.131517514227234" rho_cutoff="144.52607005690894" l_max="2" l_max_rho="4" l_local="2" mesh_size="1135" number_of_wfc="2" number_of_proj="4"/>
  <PP_MESH mesh="1135" dx="1.2500000000000001E-002" xmin="-7.0000000000000000" rmax="100.00000000000000" zmesh="13.000000000000000">
    <PP_R>
   7.014476658111663E-05   7.102707912838632E-05   7.192048980127555E-05
   7.282513819701954E-05   7.374116566877076E-05   7.466871534768530E-05
   7.560793216528758E-05   7.655896287611625E-05   7.752195608065465E-05
   7.849706224855035E-05   7.948443374212593E-05   8.048422484018604E-05
   8.149659176212386E-05   8.252169269233053E-05   8.355968780491215E-05
   8.461073928871678E-05   8.567501137267717E-05   8.675267035147172E-05
   8.784388461150826E-05   8.894882465723522E-05   9.006766313778265E-05
   9.120057487393945E-05   9.234773688546930E-05   9.350932841877036E-05
   9.468553097488315E-05   9.587652833784997E-05   9.708250660343188E-05
   9.830365420818649E-05   9.954016195891138E-05   1.007922230624585E-04
   1.020600331559224E-04   1.033437903372098E-04   1.046436951959918E-04
   1.059599508450475E-04   1.072927629519999E-04   1.086423397714524E-04
   1.100088921775288E-04   1.113926336968227E-04   1.127937805417618E-04
   1.142125516443913E-04   1.156491686905825E-04   1.171038561546717E-04
   1.185768413345346E-04   1.200683543871025E-04   1.215786283643244E-04
   1.231078992495819E-04   1.246564059945621E-04   1.262243905565943E-04
   1.278120979364565E-04   1.294197762166570E-04   1.310476766001980E-04
   1.326960534498263E-04   1.343651643277784E-04   1.360552700360247E-04
   1.377666346570208E-04   1.394995255949704E-04   1.412542136176082E-04
   1.430309728985078E-04   1.448300810599213E-04   1.466518192161597E-04
   1.484964720175161E-04   1.503643276947436E-04   1.522556781040920E-04
   1.541708187729107E-04   1.561100489458257E-04   1.580736716314968E-04
   1.600619936499638E-04   1.620753256805872E-04   1.641139823105929E-04
   1.661782820842273E-04   1.682685475525296E-04   1.703851053237321E-04
   1.725282861142926E-04   1.746984248005698E-04   1.768958604711489E-04
   1.791209364798241E-04   1.813740004992487E-04   1.836554045752595E-04
   1.859655051818849E-04   1.883046632770448E-04   1.906732443589506E-04
   1.930716185232153E-04   1.955001605206814E-04   1.979592498159769E-04
   2.004492706468076E-04   2.029706120839940E-04   2.055236680922654E-04
   2.081088375918174E-04   2.107265245206437E-04   2.133771378976530E-04
   2.160610918865779E-04   2.187788058606898E-04   2.215307044683264E-04
   2.243172176992437E-04   2.271387809518036E-04   2.299958351010046E-04
   2.328888265673704E-04   2.358182073867033E-04   2.387844352807161E-04
   2.417879737285523E-04   2.448292920392052E-04   2.479088654248482E-04
   2.510271750750883E-04   2.541847082321525E-04   2.573819582670209E-04
   2.606194247565163E-04   2.638976135613642E-04   2.672170369052349E-04
   2.705782134547791E-04   2.739816684006715E-04   2.774279335396716E-04
   2.809175473577187E-04   2.844510551140717E-04   2.880290089265062E-04
   2.916519678575852E-04   2.953204980020126E-04   2.990351725750869E-04
   3.027965720022680E-04   3.066052840098685E-04   3.104619037168891E-04
   3.143670337280051E-04   3.183212842277259E-04   3.223252730757369E-04
   3.263796259034416E-04   3.304849762117184E-04   3.346419654699053E-04
   3.388512432160312E-04   3.431134671583078E-04   3.474293032778974E-04
   3.517994259329748E-04   3.562245179640958E-04   3.607052708008932E-04
   3.652423845701137E-04   3.698365682050143E-04   3.744885395561356E-04
   3.791990255034655E-04   3.839687620700167E-04   3.887984945368318E-04
   3.936889775594347E-04   3.986409752857481E-04   4.036552614754911E-04
   4.087326196210827E-04   4.138738430700631E-04   4.190797351490558E-04
   4.243511092892901E-04   4.296887891537000E-04   4.350936087656237E-04
   4.405664126391219E-04   4.461080559109339E-04   4.517194044740963E-04
   4.574013351132380E-04   4.631547356415815E-04   4.689805050396645E-04
   4.748795535958078E-04   4.808528030483509E-04   4.869011867296728E-04
   4.930256497120294E-04   4.992271489552221E-04   5.055066534561240E-04
   5.118651444000903E-04   5.183036153142667E-04   5.248230722228329E-04
   5.314245338041948E-04   5.381090315501547E-04   5.448776099270865E-04
   5.517313265391307E-04   5.586712522934532E-04   5.656984715675720E-04
   5.728140823787952E-04   5.800191965557905E-04   5.873149399123047E-04
   5.947024524230823E-04   6.021828884019826E-04   6.097574166823457E-04
   6.174272207996277E-04   6.251934991763239E-04   6.330574653092331E-04
   6.410203479590622E-04   6.490833913424254E-04   6.572478553262574E-04
   6.655150156246642E-04   6.738861639982637E-04   6.823626084560199E-04
   6.909456734596243E-04   6.996367001304480E-04   7.084370464590877E-04
   7.173480875175635E-04   7.263712156741701E-04   7.355078408110388E-04
   7.447593905444379E-04   7.541273104478329E-04   7.636130642777702E-04
   7.732181342025835E-04   7.829440210339899E-04   7.927922444615961E-04
   8.027643432903465E-04   8.128618756809735E-04   8.230864193934559E-04
   8.334395720335501E-04   8.439229513024221E-04   8.545381952494082E-04
   8.652869625279743E-04   8.761709326548752E-04   8.871918062725863E-04
   8.983513054150349E-04   9.096511737766629E-04   9.210931769848940E-04
   9.326791028760076E-04   9.444107617744951E-04   9.562899867759302E-04
   9.683186340333845E-04   9.804985830474669E-04   9.928317369599902E-04
   1.005320022851345E-03   1.017965392041611E-03   1.030769820395448E-03
   1.043735308630841E-03   1.056863882631703E-03   1.070157593764432E-03
   1.083618519198441E-03   1.097248762230712E-03   1.111050452614452E-03
   1.125025746891863E-03   1.139176828731108E-03   1.153505909267517E-03
   1.168015227449073E-03   1.182707050386264E-03   1.197583673706315E-03
   1.212647421911884E-03   1.227900648744279E-03   1.243345737551221E-03
   1.258985101659264E-03   1.274821184750866E-03   1.290856461246228E-03
   1.307093436689929E-03   1.323534648142414E-03   1.340182664576424E-03
   1.357040087278397E-03   1.374109550254926E-03   1.391393720644332E-03
   1.408895299133398E-03   1.426617020379376E-03   1.444561653437262E-03
   1.462732002192481E-03   1.481130905798995E-03   1.499761239122923E-03
   1.518625913191752E-03   1.537727875649187E-03   1.557070111215722E-03
   1.576655642155020E-03   1.596487528746134E-03   1.616568869761695E-03
   1.636902802952090E-03   1.657492505535752E-03   1.678341194695598E-03
   1.699452128081726E-03   1.720828604320431E-03   1.742473963529613E-03
   1.764391587840687E-03   1.786584901927044E-03   1.809057373539162E-03
   1.831812514046452E-03   1.854853878985913E-03   1.878185068617695E-03
   1.901809728487646E-03   1.925731549996934E-03   1.949954270978842E-03
   1.974481676282802E-03   1.999317598365796E-03   2.024465917891178E-03
   2.049930564335037E-03   2.075715516600191E-03   2.101824803637890E-03
   2.128262505077352E-03   2.155032751863217E-03   2.182139726901008E-03
   2.209587665710726E-03   2.237380857088652E-03   2.265523643777484E-03
   2.294020423144901E-03   2.322875647870654E-03   2.352093826642315E-03
   2.381679524859761E-03   2.411637365348530E-03   2.441972029082150E-03
   2.472688255913544E-03   2.503790845315649E-03   2.535284657131336E-03
   2.567174612332775E-03   2.599465693790351E-03   2.632162947051233E-03
   2.665271481127771E-03   2.698796469295772E-03   2.732743149902843E-03
   2.767116827186898E-03   2.801922872104941E-03   2.837166723172309E-03
   2.872853887312433E-03   2.908989940717314E-03   2.945580529718820E-03
   2.982631371670924E-03   3.020148255843063E-03   3.058137044324717E-03
   3.096603672941373E-03   3.135554152182017E-03   3.174994568138273E-03
   3.214931083455378E-03   3.255369938295101E-03   3.296317451310783E-03
   3.337780020634644E-03   3.379764124877494E-03   3.422276324141040E-03
   3.465323261042909E-03   3.508911661754570E-03   3.553048337052317E-03
   3.597740183381460E-03   3.642994183933918E-03   3.688817409739344E-03
   3.735217020769998E-03   3.782200267059506E-03   3.829774489835688E-03
   3.877947122667644E-03   3.926725692627263E-03   3.976117821465340E-03
   4.026131226802490E-03   4.076773723335062E-03   4.128053224056164E-03
   4.179977741492115E-03   4.232555388954404E-03   4.285794381807415E-03
   4.339703038752104E-03   4.394289783125792E-03   4.449563144218345E-03
   4.505531758604889E-03   4.562204371495286E-03   4.619589838100611E-03
   4.677697125016768E-03   4.736535311625557E-03   4.796113591513343E-03
   4.856441273907567E-03   4.917527785131352E-03   4.979382670076350E-03
   5.042015593694182E-03   5.105436342506588E-03   5.169654826134597E-03
   5.234681078846938E-03   5.300525261127891E-03   5.367197661264898E-03
   5.434708696956125E-03   5.503068916938247E-03   5.572289002634728E-03
   5.642379769824780E-03   5.713352170333377E-03   5.785217293742494E-03
   5.857986369123871E-03   5.931670766793593E-03   6.006282000088705E-03
   6.081831727166207E-03   6.158331752824661E-03   6.235794030348711E-03
   6.314230663376831E-03   6.393653907792505E-03   6.474076173639261E-03
   6.555510027059759E-03   6.637968192259269E-03   6.721463553493876E-03
   6.806009157083640E-03   6.891618213451132E-03   6.978304099185581E-03
   7.066080359132991E-03   7.154960708512576E-03   7.244959035059746E-03
   7.336089401196127E-03   7.428366046226835E-03   7.521803388565388E-03
   7.616416027986638E-03   7.712218747907980E-03   7.809226517699315E-03
   7.907454495022033E-03   8.006918028197434E-03   8.107632658604948E-03
   8.209614123110477E-03   8.312878356525331E-03   8.417441494096076E-03
   8.523319874025690E-03   8.630530040026441E-03   8.739088743904905E-03
   8.849012948179417E-03   8.960319828730540E-03   9.073026777484814E-03
   9.187151405132278E-03   9.302711543878208E-03   9.419725250229381E-03
   9.538210807815483E-03   9.658186730245948E-03   9.779671764002738E-03
   9.902684891369556E-03   1.002724533339782E-02   1.015337255291002E-02
   1.028108625754081E-02   1.041040640281636E-02   1.054135319527250E-02
   1.067394709561195E-02   1.080820882190140E-02   1.094415935280874E-02
   1.108181993088102E-02   1.122121206586365E-02   1.136235753806130E-02
   1.150527840174116E-02   1.164999698857897E-02   1.179653591114834E-02
   1.194491806645408E-02   1.209516663950982E-02   1.224730510696080E-02
   1.240135724075207E-02   1.255734711184295E-02   1.271529909396820E-02
   1.287523786744635E-02   1.303718842303617E-02   1.320117606584145E-02
   1.336722641926501E-02   1.353536542901242E-02   1.370561936714604E-02
   1.387801483619007E-02   1.405257877328729E-02   1.422933845440802E-02
   1.440832149861208E-02   1.458955587236426E-02   1.477306989390417E-02
   1.495889223767105E-02   1.514705193878416E-02   1.533757839757963E-02
   1.553050138420427E-02   1.572585104326724E-02   1.592365789855021E-02
   1.612395285777676E-02   1.632676721744178E-02   1.653213266770159E-02
   1.674008129732562E-02   1.695064559871031E-02   1.716385847295614E-02
   1.737975323500853E-02   1.759836361886327E-02   1.781972378283761E-02
   1.804386831490752E-02   1.827083223811216E-02   1.850065101602632E-02
   1.873336055830160E-02   1.896899722627743E-02   1.920759783866259E-02
   1.944919967728819E-02   1.969384049293308E-02   1.994155851122243E-02
   2.019239243860057E-02   2.044638146837898E-02   2.070356528686030E-02
   2.096398407953944E-02   2.122767853738255E-02   2.149468986318519E-02
   2.176505977801024E-02   2.203883052770693E-02   2.231604488951195E-02
   2.259674617873330E-02   2.288097825551852E-02   2.316878553170787E-02
   2.346021297777379E-02   2.375530612984769E-02   2.405411109683491E-02
   2.435667456761949E-02   2.466304381835930E-02   2.497326671987306E-02
   2.528739174512032E-02   2.560546797677536E-02   2.592754511489650E-02
   2.625367348469184E-02   2.658390404438266E-02   2.691828839316580E-02
   2.725687877927607E-02   2.759972810815014E-02   2.794688995069319E-02
   2.829841855164941E-02   2.865436883807793E-02   2.901479642793516E-02
   2.937975763876532E-02   2.974930949650012E-02   3.012350974436915E-02
   3.050241685192253E-02   3.088609002416668E-02   3.127458921081534E-02
   3.166797511565683E-02   3.206630920603910E-02   3.246965372247428E-02
   3.287807168836360E-02   3.329162691984519E-02   3.371038403576535E-02
   3.413440846777537E-02   3.456376647055551E-02   3.499852513216721E-02
   3.543875238453585E-02   3.588451701406528E-02   3.633588867238575E-02
   3.679293788723724E-02   3.725573607348943E-02   3.772435554430049E-02
   3.819886952241614E-02   3.867935215161084E-02   3.916587850827302E-02
   3.965852461313572E-02   4.015736744315511E-02   4.066248494353829E-02
   4.117395603992233E-02   4.169186065070671E-02   4.221627969954051E-02
   4.274729512796705E-02   4.328498990822739E-02   4.382944805622484E-02
   4.438075464465283E-02   4.493899581628739E-02   4.550425879744734E-02
   4.607663191162352E-02   4.665620459327949E-02   4.724306740182600E-02
   4.783731203577080E-02   4.843903134704695E-02   4.904831935552106E-02
   4.966527126368400E-02   5.028998347152672E-02   5.092255359160263E-02
   5.156308046427997E-02   5.221166417318576E-02   5.286840606084402E-02
   5.353340874451093E-02   5.420677613220874E-02   5.488861343896176E-02
   5.557902720323636E-02   5.627812530358783E-02   5.698601697551677E-02
   5.770281282853708E-02   5.842862486345915E-02   5.916356648989008E-02
   5.990775254395422E-02   6.066129930623668E-02   6.142432451995210E-02
   6.219694740934253E-02   6.297928869830635E-02   6.377147062926157E-02
   6.457361698224673E-02   6.538585309426143E-02   6.620830587885064E-02
   6.704110384593527E-02   6.788437712189196E-02   6.873825746988584E-02
   6.960287831045844E-02   7.047837474237524E-02   7.136488356373488E-02
   7.226254329334429E-02   7.317149419236263E-02   7.409187828621709E-02
   7.502383938679485E-02   7.596752311491400E-02   7.692307692307693E-02
   7.789065011851036E-02   7.887039388649456E-02   7.986246131398658E-02
   8.086700741354037E-02   8.188418914752764E-02   8.291416545266397E-02
   8.395709726484246E-02   8.501314754428063E-02   8.608248130098319E-02
   8.716526562052510E-02   8.826166969015942E-02   8.937186482525258E-02
   9.049602449605317E-02   9.163432435479685E-02   9.278694226315236E-02
   9.395405832001308E-02   9.513585488963733E-02   9.633251663014347E-02
   9.754423052236311E-02   9.877118589905703E-02   1.000135744744993E-01
   1.012715903744325E-01   1.025454301664003E-01   1.038352928904619E-01
   1.051413800902920E-01   1.064638958446732E-01   1.078030467993826E-01
   1.091590421994814E-01   1.105320939220096E-01   1.119224165090924E-01
   1.133302272014628E-01   1.147557459724054E-01   1.161991955621287E-01
   1.176608015125677E-01   1.191407922026256E-01   1.206393988838592E-01
   1.221568557166111E-01   1.236933998065988E-01   1.252492712419624E-01
   1.268247131307791E-01   1.284199716390495E-01   1.300352960291609E-01
   1.316709386988358E-01   1.333271552205690E-01   1.350042043815614E-01
   1.367023482241568E-01   1.384218520867853E-01   1.401629846454238E-01
   1.419260179555770E-01   1.437112274947863E-01   1.455188922056746E-01
   1.473492945395305E-01   1.492027205004427E-01   1.510794596899883E-01
   1.529798053524840E-01   1.549040544208059E-01   1.568525075627858E-01
   1.588254692281914E-01   1.608232476962967E-01   1.628461551240519E-01
   1.648945075948584E-01   1.669686251679572E-01   1.690688319284387E-01
   1.711954560378822E-01   1.733488297856314E-01   1.755292896407157E-01
   1.777371763044234E-01   1.799728347635378E-01   1.822366143442417E-01
   1.845288687666999E-01   1.868499562003299E-01   1.892002393197654E-01
   1.915800853615255E-01   1.939898661813961E-01   1.964299583125328E-01
   1.989007430242959E-01   2.014026063818232E-01   2.039359393063545E-01
   2.065011376363133E-01   2.090986021891573E-01   2.117287388240083E-01
   2.143919585050655E-01   2.170886773658230E-01   2.198193167740897E-01
   2.225843033978278E-01   2.253840692718234E-01   2.282190518651899E-01
   2.310896941497255E-01   2.339964446691281E-01   2.369397576090793E-01
   2.399200928682150E-01   2.429379161299822E-01   2.459936989354057E-01
   2.490879187567664E-01   2.522210590722057E-01   2.553936094412732E-01
   2.586060655814177E-01   2.618589294454475E-01   2.651527092999598E-01
   2.684879198047571E-01   2.718650820932672E-01   2.752847238539677E-01
   2.787473794128416E-01   2.822535898168651E-01   2.858039029185465E-01
   2.893988734615319E-01   2.930390631672817E-01   2.967250408228441E-01
   3.004573823697273E-01   3.042366709938906E-01   3.080634972168715E-01
   3.119384589880520E-01   3.158621617780932E-01   3.198352186735393E-01
   3.238582504726123E-01   3.279318857822171E-01   3.320567611161573E-01
   3.362335209945967E-01   3.404628180447645E-01   3.447453131029281E-01
   3.490816753176544E-01   3.534725822543608E-01   3.579187200011899E-01
   3.624207832762111E-01   3.669794755359694E-01   3.715955090854065E-01
   3.762696051891543E-01   3.810024941842395E-01   3.857949155941972E-01
   3.906476182446216E-01   3.955613603801763E-01   4.005369097830654E-01
   4.055750438930069E-01   4.106765499287061E-01   4.158422250108590E-01
   4.210728762867081E-01   4.263693210561557E-01   4.317323868994735E-01
   4.371629118066114E-01   4.426617443081332E-01   4.482297436078061E-01
   4.538677797168476E-01   4.595767335898709E-01   4.653574972625346E-01
   4.712109739909220E-01   4.771380783926824E-01   4.831397365899359E-01
   4.892168863539869E-01   4.953704772518511E-01   5.016014707946240E-01
   5.079108405877257E-01   5.142995724830209E-01   5.207686647328672E-01
   5.273191281460909E-01   5.339519862459258E-01   5.406682754299462E-01
   5.474690451319998E-01   5.543553579861896E-01   5.613282899929105E-01
   5.683889306869732E-01   5.755383833078528E-01   5.827777649720652E-01
   5.901082068477252E-01   5.975308543312906E-01   6.050468672265301E-01
   6.126574199257523E-01   6.203637015932981E-01   6.281669163513575E-01
   6.360682834681134E-01   6.440690375482512E-01   6.521704287258755E-01
   6.603737228598382E-01   6.686802017315385E-01   6.770911632452010E-01
   6.856079216306721E-01   6.942318076487793E-01   7.029641687992559E-01
   7.118063695312992E-01   7.207597914567643E-01   7.298258335660405E-01
   7.390059124466547E-01   7.483014625046067E-01   7.577139361885062E-01
   7.672448042165174E-01   7.768955558061580E-01   7.866676989070007E-01
   7.965627604362843E-01   8.065822865175054E-01   8.167278427220008E-01
   8.270010143135658E-01   8.374034064961653E-01   8.479366446647388E-01
   8.586023746591819E-01   8.694022630215069E-01   8.803379972562401E-01
   8.914112860941079E-01   9.026238597590164E-01   9.139774702384150E-01
   9.254738915570415E-01   9.371149200541133E-01   9.489023746640205E-01
   9.608380972005240E-01   9.729239526445556E-01   9.851618294356186E-01
   9.975536397668564E-01   1.010101319883848E+00   1.022806830387138E+00
   1.035672156538593E+00   1.048699308571597E+00   1.061890322005161E+00
   1.075247257961973E+00   1.088772203490447E+00   1.102467271890842E+00
   1.116334603045456E+00   1.130376363752996E+00   1.144594748067142E+00
   1.158991977639369E+00   1.173570302066091E+00   1.188331999240156E+00
   1.203279375706782E+00   1.218414767023956E+00   1.233740538127360E+00
   1.249259083699912E+00   1.264972828545928E+00   1.280884227970011E+00
   1.296995768160696E+00   1.313309966578912E+00   1.329829372351359E+00
   1.346556566668792E+00   1.363494163189357E+00   1.380644808446974E+00
   1.398011182264851E+00   1.415595998174236E+00   1.433402003838386E+00
   1.451431981481914E+00   1.469688748325513E+00   1.488175157026140E+00
   1.506894096122771E+00   1.525848490487718E+00   1.545041301783667E+00
   1.564475528926433E+00   1.584154208553541E+00   1.604080415498726E+00
   1.624257263272356E+00   1.644687904547949E+00   1.665375531654775E+00
   1.686323377076652E+00   1.707534713957051E+00   1.729012856610510E+00
   1.750761161040518E+00   1.772783025463892E+00   1.795081890841748E+00
   1.817661241417173E+00   1.840524605259627E+00   1.863675554816229E+00
   1.887117707469952E+00   1.910854726104835E+00   1.934890319678338E+00
   1.959228243800853E+00   1.983872301322543E+00   2.008826342927538E+00
   2.034094267735600E+00   2.059680023911397E+00   2.085587609281378E+00
   2.111821071958469E+00   2.138384510974592E+00   2.165282076921127E+00
   2.192517972597486E+00   2.220096453667772E+00   2.248021829325765E+00
   2.276298462968229E+00   2.304930772876694E+00   2.333923232907843E+00
   2.363280373192533E+00   2.393006780843666E+00   2.423107100672921E+00
   2.453586035916500E+00   2.484448348970056E+00   2.515698862132782E+00
   2.547342458360947E+00   2.579384082030844E+00   2.611828739711350E+00
   2.644681500946248E+00   2.677947499046311E+00   2.711631931891426E+00
   2.745740062742762E+00   2.780277221065149E+00   2.815248803359849E+00
   2.850660274007738E+00   2.886517166123154E+00   2.922825082418446E+00
   2.959589696079395E+00   2.996816751651694E+00   3.034512065938504E+00
   3.072681528909380E+00   3.111331104620572E+00   3.150466832146908E+00
   3.190094826525447E+00   3.230221279710924E+00   3.270852461543291E+00
   3.311994720727382E+00   3.353654485824885E+00   3.395838266258868E+00
   3.438552653330835E+00   3.481804321250674E+00   3.525600028179501E+00
   3.569946617285614E+00   3.614851017813796E+00   3.660320246167977E+00
   3.706361407007601E+00   3.752981694357728E+00   3.800188392733091E+00
   3.847988878276370E+00   3.896390619910667E+00   3.945401180506593E+00
   3.995028218063961E+00   4.045279486908343E+00   4.096162838902746E+00
   4.147686224674429E+00   4.199857694857249E+00   4.252685401349575E+00
   4.306177598588012E+00   4.360342644837221E+00   4.415189003495865E+00
   4.470725244419076E+00   4.526960045257497E+00   4.583902192813153E+00
   4.641560584412466E+00   4.699944229296413E+00   4.759062250028299E+00
   4.818923883919147E+00   4.879538484471026E+00   4.940915522838612E+00
   5.003064589309001E+00   5.065995394800284E+00   5.129717772378863E+00
   5.194241678795858E+00   5.259577196042940E+00   5.325734532927588E+00
   5.392724026668296E+00   5.460556144509765E+00   5.529241485358390E+00
   5.598790781438442E+00   5.669214899968911E+00   5.740524844861609E+00
   5.812731758440514E+00   5.885846923182760E+00   5.959881763481613E+00
   6.034847847431474E+00   6.110756888635487E+00   6.187620748035793E+00
   6.265451435766780E+00   6.344261113031778E+00   6.424062094003175E+00
   6.504866847746616E+00   6.586688000169281E+00   6.669538335992685E+00
   6.753430800750379E+00   6.838378502810641E+00   6.924394715424754E+00
   7.011492878800957E+00   7.099686602204453E+00   7.188989666083980E+00
   7.279416024224934E+00   7.370979805929760E+00   7.463695318225650E+00
   7.557577048100005E+00   7.652639664764150E+00   7.748898021945317E+00
   7.846367160207668E+00   7.945062309302373E+00   8.044998890547248E+00
   8.146192519236463E+00   8.248659007080350E+00   8.352414364676124E+00
   8.457474804009509E+00   8.563856740987873E+00   8.671576798005333E+00
   8.780651806539925E+00   8.891098809783667E+00   9.002935065305532E+00
   9.116178047747949E+00   9.230845451557350E+00   9.346955193748844E+00
   9.464525416705888E+00   9.583574491015035E+00   9.704121018336322E+00
   9.826183834309926E+00   9.949782011499151E+00   1.007493486237066E+01
   1.020166194231205E+01   1.032998305268735E+01   1.045991824393116E+01
   1.059148781868144E+01   1.072471233495193E+01   1.085961260934438E+01
   1.099620972030108E+01   1.113452501139855E+01   1.127458009468240E+01
   1.141639685404435E+01   1.155999744864161E+01   1.170540431635920E+01
   1.185264017731607E+01   1.200172803741501E+01   1.215269119193750E+01
   1.230555322918359E+01   1.246033803415757E+01   1.261706979230015E+01
   1.277577299326739E+01   1.293647243475734E+01   1.309919322638470E+01
   1.326396079360418E+01   1.343080088168342E+01   1.359973955972557E+01
   1.377080322474282E+01   1.394401860578087E+01   1.411941276809538E+01
   1.429701311738110E+01   1.447684740405388E+01   1.465894372758692E+01
   1.484333054090128E+01   1.503003665481161E+01   1.521909124252813E+01
   1.541052384421476E+01   1.560436437160499E+01   1.580064311267564E+01
   1.599939073637928E+01   1.620063829743652E+01   1.640441724118816E+01
   1.661075940850878E+01   1.681969704078186E+01   1.703126278493747E+01
   1.724548969855364E+01   1.746241125502139E+01   1.768206134877530E+01
   1.790447430058941E+01   1.812968486293989E+01   1.835772822543537E+01
   1.858864002031514E+01   1.882245632801695E+01   1.905921368281464E+01
   1.929894907852651E+01   1.954169997429594E+01   1.978750430044423E+01
   2.003640046439745E+01   2.028842735668763E+01   2.054362435702939E+01
   2.080203134047331E+01   2.106368868363620E+01   2.132863727101030E+01
   2.159691850135150E+01   2.186857429414776E+01   2.214364709616949E+01
   2.242217988810155E+01   2.270421619125941E+01   2.298980007438928E+01
   2.327897616055384E+01   2.357178963410497E+01   2.386828624774357E+01
   2.416851232966879E+01   2.447251479081677E+01   2.478034113219050E+01
   2.509203945228218E+01   2.540765845458838E+01   2.572724745522039E+01
   2.605085639060981E+01   2.637853582531111E+01   2.671033695990270E+01
   2.704631163898683E+01   2.738651235929070E+01   2.773099227786906E+01
   2.807980522040992E+01   2.843300568964533E+01   2.879064887386709E+01
   2.915279065555043E+01   2.951948762008556E+01   2.989079706461914E+01
   3.026677700700742E+01   3.064748619488123E+01   3.103298411482578E+01
   3.142333100167543E+01   3.181858784792529E+01   3.221881641326187E+01
   3.262407923421266E+01   3.303443963391799E+01   3.344996173202528E+01
   3.387071045470761E+01   3.429675154480904E+01   3.472815157211658E+01
   3.516497794376222E+01   3.560729891475535E+01   3.605518359864746E+01
   3.650870197833176E+01   3.696792491697764E+01   3.743292416910363E+01
   3.790377239178898E+01   3.838054315602631E+01   3.886331095821765E+01
   3.935215123181417E+01   3.984714035910323E+01   4.034835568314311E+01
   4.085587551984778E+01   4.136977917022442E+01   4.189014693276381E+01
   4.241706011598760E+01   4.295060105115277E+01   4.349085310511578E+01
   4.403790069335938E+01   4.459182929318203E+01   4.515272545705453E+01
   4.572067682614371E+01   4.629577214400633E+01   4.687810127045601E+01
   4.746775519560336E+01   4.806482605407392E+01   4.866940713940416E+01
   4.928159291861853E+01   4.990147904699069E+01   5.052916238298921E+01
   5.116474100341244E+01   5.180831421871304E+01   5.245998258851504E+01
   5.311984793732726E+01   5.378801337045275E+01   5.446458329009995E+01
   5.514966341169538E+01   5.584336078040164E+01   5.654578378784414E+01
   5.725704218904669E+01   5.797724711958164E+01   5.870651111293474E+01
   5.944494811808845E+01   6.019267351732743E+01   6.094980414426631E+01
   6.171645830210608E+01   6.249275578211877E+01   6.327881788236481E+01
   6.407476742664683E+01   6.488072878370028E+01   6.569682788662705E+01
   6.652319225257244E+01   6.735995100264969E+01   6.820723488211610E+01
   6.906517628080141E+01   6.993390925379479E+01   7.081356954239085E+01
   7.170429459529910E+01   7.260622359012152E+01   7.351949745509827E+01
   7.444425889112897E+01   7.538065239406956E+01   7.632882427730971E+01
   7.728892269463553E+01   7.826109766337778E+01   7.924550108785337E+01
   8.024228678310031E+01   8.125161049891116E+01   8.227362994417032E+01
   8.330850481149508E+01   8.435639680218911E+01   8.541746965150809E+01
   8.649188915424313E+01   8.757982319062778E+01   8.868144175256836E+01
   8.979691697020657E+01   9.092642313881477E+01   9.207013674602950E+01
   9.322823649942910E+01   9.440090335445591E+01   9.558832054269199E+01
   9.679067360048897E+01   9.800815039795800E+01   9.924094116832603E+01
   1.004892385376587E+02
    </PP_R>
    <PP_RAB>
   8.768095822639580E-07   8.878384891048291E-07   8.990061225159445E-07
   9.103142274627443E-07   9.217645708596345E-07   9.333589418460663E-07
   9.450991520660948E-07   9.569870359514532E-07   9.690244510081832E-07
   9.812132781068794E-07   9.935554217765741E-07   1.006052810502326E-06
   1.018707397026548E-06   1.031521158654132E-06   1.044496097561402E-06
   1.057634241108960E-06   1.070937642158465E-06   1.084408379393397E-06
   1.098048557643853E-06   1.111860308215440E-06   1.125845789222283E-06
   1.140007185924243E-06   1.154346711068366E-06   1.168866605234630E-06
   1.183569137186040E-06   1.198456604223125E-06   1.213531332542899E-06
   1.228795677602331E-06   1.244252024486392E-06   1.259902788280731E-06
   1.275750414449030E-06   1.291797379215122E-06   1.308046189949898E-06
   1.324499385563094E-06   1.341159536899999E-06   1.358029247143156E-06
   1.375111152219110E-06   1.392407921210284E-06   1.409922256772022E-06
   1.427656895554891E-06   1.445614608632281E-06   1.463798201933396E-06
   1.482210516681683E-06   1.500854429838781E-06   1.519732854554055E-06
   1.538848740619774E-06   1.558205074932026E-06   1.577804881957429E-06
   1.597651224205706E-06   1.617747202708213E-06   1.638095957502475E-06
   1.658700668122829E-06   1.679564554097231E-06   1.700690875450309E-06
   1.722082933212759E-06   1.743744069937130E-06   1.765677670220103E-06
   1.787887161231347E-06   1.810376013249017E-06   1.833147740201997E-06
   1.856205900218951E-06   1.879554096184295E-06   1.903195976301151E-06
   1.927135234661384E-06   1.951375611822821E-06   1.975920895393711E-06
   2.000774920624548E-06   2.025941571007340E-06   2.051424778882412E-06
   2.077228526052841E-06   2.103356844406620E-06   2.129813816546651E-06
   2.156603576428657E-06   2.183730310007122E-06   2.211198255889362E-06
   2.239011705997802E-06   2.267175006240609E-06   2.295692557190744E-06
   2.324568814773561E-06   2.353808290963061E-06   2.383415554486883E-06
   2.413395231540191E-06   2.443752006508518E-06   2.474490622699712E-06
   2.505615883085095E-06   2.537132651049925E-06   2.569045851153318E-06
   2.601360469897718E-06   2.634081556508046E-06   2.667214223720662E-06
   2.700763648582224E-06   2.734735073258623E-06   2.769133805854080E-06
   2.803965221240546E-06   2.839234761897545E-06   2.874947938762558E-06
   2.911110332092130E-06   2.947727592333792E-06   2.984805441008951E-06
   3.022349671606904E-06   3.060366150490065E-06   3.098860817810603E-06
   3.137839688438604E-06   3.177308852901906E-06   3.217274478337762E-06
   3.257742809456454E-06   3.298720169517052E-06   3.340212961315436E-06
   3.382227668184739E-06   3.424770855008394E-06   3.467849169245895E-06
   3.511469341971484E-06   3.555638188925896E-06   3.600362611581327E-06
   3.645649598219816E-06   3.691506225025157E-06   3.737939657188587E-06
   3.784957150028350E-06   3.832566050123357E-06   3.880773796461114E-06
   3.929587921600064E-06   3.979016052846574E-06   4.029065913446711E-06
   4.079745323793020E-06   4.131062202646480E-06   4.183024568373817E-06
   4.235640540200391E-06   4.288918339478848E-06   4.342866290973718E-06
   4.397492824162186E-06   4.452806474551198E-06   4.508815885011165E-06
   4.565529807126420E-06   4.622957102562679E-06   4.681106744451695E-06
   4.739987818793319E-06   4.799609525875209E-06   4.859981181710398E-06
   4.921112219492934E-06   4.983012191071852E-06   5.045690768443639E-06
   5.109157745263534E-06   5.173423038375790E-06   5.238496689363198E-06
   5.304388866116127E-06   5.371109864421250E-06   5.438670109570296E-06
   5.507080157989025E-06   5.576350698886674E-06   5.646492555926205E-06
   5.717516688915475E-06   5.789434195519769E-06   5.862256312995806E-06
   5.935994419947598E-06   6.010660038104387E-06   6.086264834120910E-06
   6.162820621400368E-06   6.240339361940276E-06   6.318833168201551E-06
   6.398314305001129E-06   6.478795191428334E-06   6.560288402785411E-06
   6.642806672552436E-06   6.726362894376934E-06   6.810970124088582E-06
   6.896641581739134E-06   6.983390653668166E-06   7.071230894594650E-06
   7.160176029734941E-06   7.250239956947382E-06   7.341436748903809E-06
   7.433780655288529E-06   7.527286105024782E-06   7.621967708529321E-06
   7.717840259995347E-06   7.814918739704049E-06   7.913218316365415E-06
   8.012754349488279E-06   8.113542391780319E-06   8.215598191578218E-06
   8.318937695308303E-06   8.423577049978297E-06   8.529532605700250E-06
   8.636820918245304E-06   8.745458751630599E-06   8.855463080738597E-06
   8.966851093969545E-06   9.079640195927126E-06   9.193848010137986E-06
   9.309492381805476E-06   9.426591380597911E-06   9.545163303472129E-06
   9.665226677532294E-06   9.786800262924874E-06   9.909903055769952E-06
   1.003455429112933E-05   1.016077344601217E-05   1.028858024241820E-05
   1.041799465041938E-05   1.054903689128028E-05   1.068172744061760E-05
   1.081608703159968E-05   1.095213665818594E-05   1.108989757840733E-05
   1.122939131768794E-05   1.137063967220829E-05   1.151366471231118E-05
   1.165848878595010E-05   1.180513452218119E-05   1.195362483469913E-05
   1.210398292541731E-05   1.225623228809334E-05   1.241039671199988E-05
   1.256650028564181E-05   1.272456740052014E-05   1.288462275494311E-05
   1.304669135788551E-05   1.321079853289629E-05   1.337696992205541E-05
   1.354523148998051E-05   1.371560952788390E-05   1.388813065768065E-05
   1.406282183614829E-05   1.423971035913885E-05   1.441882386584396E-05
   1.460019034311341E-05   1.478383812982830E-05   1.496979592132893E-05
   1.515809277389854E-05   1.534875810930348E-05   1.554182171939026E-05
   1.573731377074080E-05   1.593526480938582E-05   1.613570576557785E-05
   1.633866795862412E-05   1.654418310178018E-05   1.675228330720530E-05
   1.696300109097996E-05   1.717636937818657E-05   1.739242150805415E-05
   1.761119123916748E-05   1.783271275474220E-05   1.805702066796578E-05
   1.828415002740602E-05   1.851413632248743E-05   1.874701548903654E-05
   1.898282391489691E-05   1.922159844561484E-05   1.946337639019653E-05
   1.970819552693775E-05   1.995609410932668E-05   2.020711087202118E-05
   2.046128503690113E-05   2.071865631919690E-05   2.097926493369497E-05
   2.124315160102158E-05   2.151035755400539E-05   2.178092454412016E-05
   2.205489484800859E-05   2.233231127408805E-05   2.261321716923953E-05
   2.289765642558065E-05   2.318567348732392E-05   2.347731335772119E-05
   2.377262160609558E-05   2.407164437496168E-05   2.437442838723552E-05
   2.468102095353503E-05   2.499146997957245E-05   2.530582397363973E-05
   2.562413205418797E-05   2.594644395750239E-05   2.627281004547363E-05
   2.660328131346690E-05   2.693790939829021E-05   2.727674658626260E-05
   2.761984582138407E-05   2.796726071360815E-05   2.831904554721855E-05
   2.867525528931126E-05   2.903594559838318E-05   2.940117283302894E-05
   2.977099406074701E-05   3.014546706685663E-05   3.052465036352688E-05
   3.090860319891930E-05   3.129738556644561E-05   3.169105821414170E-05
   3.208968265415969E-05   3.249332117237938E-05   3.290203683814042E-05
   3.331589351409714E-05   3.373495586619715E-05   3.415928937378554E-05
   3.458896033983622E-05   3.502403590131176E-05   3.546458403965386E-05
   3.591067359140541E-05   3.636237425896643E-05   3.681975662148525E-05
   3.728289214588654E-05   3.775185319803829E-05   3.822671305405896E-05
   3.870754591176717E-05   3.919442690227522E-05   3.968743210172842E-05
   4.018663854319223E-05   4.069212422868877E-05   4.120396814138479E-05
   4.172225025793306E-05   4.224705156096867E-05   4.277845405176300E-05
   4.331654076303637E-05   4.386139577193212E-05   4.441310421315397E-05
   4.497175229226825E-05   4.553742729917397E-05   4.611021762174180E-05
   4.669021275962498E-05   4.727750333824383E-05   4.787218112294610E-05
   4.847433903334556E-05   4.908407115784079E-05   4.970147276831675E-05
   5.032664033503113E-05   5.095967154168828E-05   5.160066530070205E-05
   5.224972176865144E-05   5.290694236193005E-05   5.357242977259270E-05
   5.424628798440131E-05   5.492862228907240E-05   5.561953930272932E-05
   5.631914698256112E-05   5.702755464369108E-05   5.774487297625764E-05
   5.847121406270960E-05   5.920669139531946E-05   5.995141989391679E-05
   6.070551592384459E-05   6.146909731414190E-05   6.224228337595438E-05
   6.302519492117728E-05   6.381795428133236E-05   6.462068532668246E-05
   6.543351348558673E-05   6.625656576409864E-05   6.708997076581122E-05
   6.793385871195156E-05   6.878836146172810E-05   6.965361253293410E-05
   7.052974712280975E-05   7.141690212916722E-05   7.231521617178119E-05
   7.322482961404839E-05   7.414588458491992E-05   7.507852500110882E-05
   7.602289658957759E-05   7.697914691030827E-05   7.794742537935888E-05
   7.892788329221038E-05   7.992067384740632E-05   8.092595217049077E-05
   8.194387533824699E-05   8.297460240324087E-05   8.401829441867346E-05
   8.507511446354550E-05   8.614522766813915E-05   8.722880123981977E-05
   8.832600448916240E-05   8.943700885640720E-05   9.056198793824682E-05
   9.170111751495159E-05   9.285457557783545E-05   9.402254235706735E-05
   9.520520034983298E-05   9.640273434884976E-05   9.761533147124144E-05
   9.884318118777542E-05   1.000864753524679E-04   1.013454082325619E-04
   1.026201765388810E-04   1.039109794565666E-04   1.052180186762010E-04
   1.065414984253211E-04   1.078816255003305E-04   1.092386092988113E-04
   1.106126618522427E-04   1.120039978591318E-04   1.134128347185602E-04
   1.148393925641535E-04   1.162838942984776E-04   1.177465656278673E-04
   1.192276350976935E-04   1.207273341280744E-04   1.222458970500342E-04
   1.237835611421195E-04   1.253405666674728E-04   1.269171569113753E-04
   1.285135782192601E-04   1.301300800352045E-04   1.317669149409062E-04
   1.334243386951493E-04   1.351026102737675E-04   1.368019919101093E-04
   1.385227491360128E-04   1.402651508232956E-04   1.420294692257662E-04
   1.438159800217646E-04   1.456249623572372E-04   1.474566988893543E-04
   1.493114758306760E-04   1.511895829938728E-04   1.530913138370100E-04
   1.550169655094008E-04   1.569668388980369E-04   1.589412386746025E-04
   1.609404733430794E-04   1.629648552879521E-04   1.650147008230181E-04
   1.670903302408126E-04   1.691920678626553E-04   1.713202420893255E-04
   1.734751854523758E-04   1.756572346660911E-04   1.778667306801003E-04
   1.801040187326510E-04   1.823694484045532E-04   1.846633736738021E-04
   1.869861529708881E-04   1.893381492348020E-04   1.917197299697454E-04
   1.941312673025533E-04   1.965731380408405E-04   1.990457237318777E-04
   2.015494107222095E-04   2.040845902180222E-04   2.066516583462699E-04
   2.092510162165702E-04   2.118830699838789E-04   2.145482309119518E-04
   2.172469154376066E-04   2.199795452357909E-04   2.227465472854701E-04
   2.255483539363441E-04   2.283854029764020E-04   2.312581377003290E-04
   2.341670069787700E-04   2.371124653284679E-04   2.400949729832824E-04
   2.431149959661024E-04   2.461730061616635E-04   2.492694813902804E-04
   2.524049054825071E-04   2.555797683547373E-04   2.587945660857537E-04
   2.620498009942430E-04   2.653459817172820E-04   2.686836232898149E-04
   2.720632472251280E-04   2.754853815963366E-04   2.789505611188994E-04
   2.824593272341663E-04   2.860122281939814E-04   2.896098191463484E-04
   2.932526622221724E-04   2.969413266230961E-04   3.006763887104364E-04
   3.044584320952437E-04   3.082880477294912E-04   3.121658339984132E-04
   3.160923968140040E-04   3.200683497096920E-04   3.240943139362063E-04
   3.281709185586480E-04   3.322988005547832E-04   3.364786049145726E-04
   3.407109847409508E-04   3.449966013518767E-04   3.493361243836649E-04
   3.537302318956176E-04   3.581796104759741E-04   3.626849553491895E-04
   3.672469704845665E-04   3.718663687062515E-04   3.765438718046144E-04
   3.812802106490317E-04   3.860761253020835E-04   3.909323651351917E-04
   3.958496889457104E-04   4.008288650754888E-04   4.058706715309285E-04
   4.109758961045451E-04   4.161453364980649E-04   4.213798004470669E-04
   4.266801058471922E-04   4.320470808819440E-04   4.374815641520902E-04
   4.429844048066981E-04   4.485564626758160E-04   4.541986084048219E-04
   4.599117235904655E-04   4.656967009186179E-04   4.715544443037561E-04
   4.774858690302018E-04   4.834919018951356E-04   4.895734813534128E-04
   4.957315576641965E-04   5.019670930394389E-04   5.082810617942287E-04
   5.146744504990292E-04   5.211482581338339E-04   5.277034962442564E-04
   5.343411890995881E-04   5.410623738528424E-04   5.478681007028105E-04
   5.547594330581603E-04   5.617374477035924E-04   5.688032349680919E-04
   5.759578988952940E-04   5.832025574159937E-04   5.905383425228250E-04
   5.979664004471350E-04   6.054878918380869E-04   6.131039919440133E-04
   6.208158907960500E-04   6.286247933940841E-04   6.365319198950329E-04
   6.445385058034997E-04   6.526458021648220E-04   6.608550757605503E-04
   6.691676093063866E-04   6.775847016526093E-04   6.861076679870221E-04
   6.947378400404546E-04   7.034765662948479E-04   7.123252121939596E-04
   7.212851603567135E-04   7.303578107932395E-04   7.395445811236261E-04
   7.488469067994278E-04   7.582662413279585E-04   7.678040564994013E-04
   7.774618426167816E-04   7.872411087288295E-04   7.971433828657696E-04
   8.071702122780842E-04   8.173231636782679E-04   8.276038234856331E-04
   8.380137980741909E-04   8.485547140236496E-04   8.592282183735730E-04
   8.700359788807306E-04   8.809796842796906E-04   8.920610445466861E-04
   9.032817911668036E-04   9.146436774045329E-04   9.261484785777137E-04
   9.377979923349358E-04   9.495940389364251E-04   9.615384615384616E-04
   9.736331264813795E-04   9.858799235811821E-04   9.982807664248323E-04
   1.010837592669255E-03   1.023552364344096E-03   1.036427068158300E-03
   1.049463715810531E-03   1.062664344303508E-03   1.076031016262290E-03
   1.089565820256564E-03   1.103270871126993E-03   1.117148310315657E-03
   1.131200306200665E-03   1.145429054434961E-03   1.159836778289405E-03
   1.174425729000164E-03   1.189198186120467E-03   1.204156457876793E-03
   1.219302881529539E-03   1.234639823738213E-03   1.250169680931242E-03
   1.265894879680406E-03   1.281817877080003E-03   1.297941161130773E-03
   1.314267251128650E-03   1.330798698058415E-03   1.347538084992283E-03
   1.364488027493518E-03   1.381651174025121E-03   1.399030206363655E-03
   1.416627840018284E-03   1.434446824655068E-03   1.452489944526609E-03
   1.470760018907096E-03   1.489259902532820E-03   1.507992486048240E-03
   1.526960696457638E-03   1.546167497582485E-03   1.565615890524530E-03
   1.585308914134739E-03   1.605249645488118E-03   1.625441200364511E-03
   1.645886733735447E-03   1.666589440257112E-03   1.687552554769518E-03
   1.708779352801961E-03   1.730273151084817E-03   1.752037308067798E-03
   1.774075224444713E-03   1.796390343684829E-03   1.818986152570933E-03
   1.841866181744132E-03   1.865034006255534E-03   1.888493246124854E-03
   1.912247566906050E-03   1.936300680260074E-03   1.960656344534823E-03
   1.985318365352392E-03   2.010290596203709E-03   2.035576939050649E-03
   2.061181344935731E-03   2.087107814599465E-03   2.113360399105484E-03
   2.139943200473528E-03   2.166860372320393E-03   2.194116120508946E-03
   2.221714703805293E-03   2.249660434544223E-03   2.277957679303021E-03
   2.306610859583748E-03   2.335624452504124E-03   2.365002991497068E-03
   2.394751067019070E-03   2.424873327267452E-03   2.455374478906661E-03
   2.486259287803699E-03   2.517532579772790E-03   2.549199241329431E-03
   2.581264220453916E-03   2.613732527364467E-03   2.646609235300103E-03
   2.679899481313319E-03   2.713608467072788E-03   2.747741459676121E-03
   2.782303792472848E-03   2.817300865897793E-03   2.852738148314874E-03
   2.888621176871570E-03   2.924955558364101E-03   2.961746970113492E-03
   2.999001160852688E-03   3.036723951624778E-03   3.074921236692572E-03
   3.113598984459580E-03   3.152763238402571E-03   3.192420118015914E-03
   3.232575819767722E-03   3.273236618068094E-03   3.314408866249497E-03
   3.356098997559463E-03   3.398313526165840E-03   3.441059048174597E-03
   3.484342242660520E-03   3.528169872710814E-03   3.572548786481831E-03
   3.617485918269148E-03   3.662988289591022E-03   3.709063010285551E-03
   3.755717279621592E-03   3.802958387423632E-03   3.850793715210894E-03
   3.899230737350650E-03   3.948277022226165E-03   3.997940233419241E-03
   4.048228130907654E-03   4.099148572277714E-03   4.150709513951966E-03
   4.202919012432459E-03   4.255785225559556E-03   4.309316413786601E-03
   4.363520941470681E-03   4.418407278179510E-03   4.473984000014874E-03
   4.530259790952639E-03   4.587243444199618E-03   4.644943863567581E-03
   4.703370064864429E-03   4.762531177302994E-03   4.822436444927465E-03
   4.883095228057771E-03   4.944517004752204E-03   5.006711372288319E-03
   5.069688048662587E-03   5.133456874108827E-03   5.198027812635737E-03
   5.263410953583851E-03   5.329616513201947E-03   5.396654836243419E-03
   5.464536397582643E-03   5.533271803851665E-03   5.602871795097577E-03
   5.673347246460595E-03   5.744709169873387E-03   5.816968715781683E-03
   5.890137174886526E-03   5.964225979908530E-03   6.039246707374199E-03
   6.115211079424836E-03   6.192130965648138E-03   6.270018384932801E-03
   6.348885507346572E-03   6.428744656037762E-03   6.509608309160840E-03
   6.591489101826137E-03   6.674399828074072E-03   6.758353442874328E-03
   6.843363064149998E-03   6.929441974827370E-03   7.016603624911382E-03
   7.104861633587165E-03   7.194229791348161E-03   7.284722062150816E-03
   7.376352585596566E-03   7.469135679141133E-03   7.563085840331627E-03
   7.658217749071904E-03   7.754546269916227E-03   7.852086454391968E-03
   7.950853543351418E-03   8.050862969353140E-03   8.152130359073443E-03
   8.254671535747977E-03   8.358502521644232E-03   8.463639540565013E-03
   8.570099020383401E-03   8.677897595609742E-03   8.787052109990699E-03
   8.897579619141239E-03   9.009497393209553E-03   9.122822919575507E-03
   9.237573905583184E-03   9.353768281307585E-03   9.471424202356329E-03
   9.590560052706469E-03   9.711194447576975E-03   9.833346236337510E-03
   9.957034505453554E-03   1.008227858146882E-02   1.020909803402501E-02
   1.033751267891957E-02   1.046754258120207E-02   1.059920805830924E-02
   1.073252968323977E-02   1.086752828776884E-02   1.100422496570300E-02
   1.114264107617635E-02   1.128279824698770E-02   1.142471837798019E-02
   1.156842364446302E-02   1.171393650067642E-02   1.186127968330026E-02
   1.201047621500655E-02   1.216154940805694E-02   1.231452286794523E-02
   1.246942049708571E-02   1.262626649854811E-02   1.278508537983922E-02
   1.294590195673241E-02   1.310874135714497E-02   1.327362902506452E-02
   1.344059072452466E-02   1.360965254363058E-02   1.378084089863553E-02
   1.395418253806820E-02   1.412970454691245E-02   1.430743435083928E-02
   1.448739972049211E-02   1.466962877582614E-02   1.485414999050195E-02
   1.504099219633478E-02   1.523018458779945E-02   1.542175672659200E-02
   1.561573854624890E-02   1.581216035682410E-02   1.601105284962514E-02
   1.621244710200870E-02   1.641637458223641E-02   1.662286715439198E-02
   1.683195708335989E-02   1.704367703986696E-02   1.725806010558717E-02
   1.747513977831064E-02   1.769494997717795E-02   1.791752504797983E-02
   1.814289976852393E-02   1.837110935406891E-02   1.860218946282675E-02
   1.883617620153464E-02   1.907310613109647E-02   1.931301627229584E-02
   1.955594411158041E-02   1.980192760691927E-02   2.005100519373407E-02
   2.030321579090445E-02   2.055859880684937E-02   2.081719414568469E-02
   2.107904221345815E-02   2.134418392446314E-02   2.161266070763137E-02
   2.188451451300647E-02   2.215978781829865E-02   2.243852363552185E-02
   2.272076551771467E-02   2.300655756574534E-02   2.329594443520287E-02
   2.358897134337440E-02   2.388568407631043E-02   2.418612899597923E-02
   2.449035304751067E-02   2.479840376653179E-02   2.511032928659422E-02
   2.542617834669500E-02   2.574600029889246E-02   2.606984511601722E-02
   2.639776339948087E-02   2.672980638718240E-02   2.706602596151409E-02
   2.740647465746858E-02   2.775120567084715E-02   2.810027286657206E-02
   2.845373078710287E-02   2.881163466095868E-02   2.917404041134804E-02
   2.954100466490667E-02   2.991258476054583E-02   3.028883875841151E-02
   3.066982544895625E-02   3.105560436212569E-02   3.144623577665978E-02
   3.184178072951184E-02   3.224230102538555E-02   3.264785924639187E-02
   3.305851876182810E-02   3.347434373807889E-02   3.389539914864283E-02
   3.432175078428453E-02   3.475346526331436E-02   3.519061004199812E-02
   3.563325342509673E-02   3.608146457653943E-02   3.653531353023058E-02
   3.699487120099244E-02   3.746020939564617E-02   3.793140082423131E-02
   3.840851911136725E-02   3.889163880775715E-02   3.938083540183635E-02
   3.987618533156809E-02   4.037776599638655E-02   4.088565576929114E-02
   4.139993400909227E-02   4.192068107281107E-02   4.244797832823585E-02
   4.298190816663544E-02   4.352255401563343E-02   4.407000035224377E-02
   4.462433271607017E-02   4.518563772267245E-02   4.575400307709972E-02
   4.632951758759501E-02   4.691227117947160E-02   4.750235490916364E-02
   4.809986097845463E-02   4.870488274888334E-02   4.931751475633241E-02
   4.993785272579951E-02   5.056599358635429E-02   5.120203548628433E-02
   5.184607780843036E-02   5.249822118571561E-02   5.315856751686970E-02
   5.382721998235016E-02   5.450428306046527E-02   5.518986254369831E-02
   5.588406555523845E-02   5.658700056571872E-02   5.729877741016442E-02
   5.801950730515583E-02   5.874930286620517E-02   5.948827812535373E-02
   6.023654854898935E-02   6.099423105588783E-02   6.176144403548265E-02
   6.253830736636251E-02   6.332494243500356E-02   6.412147215473578E-02
   6.492802098494822E-02   6.574471495053676E-02   6.657168166159486E-02
   6.740905033335370E-02   6.825695180637206E-02   6.911551856697988E-02
   6.998488476798052E-02   7.086518624961140E-02   7.175656056077011E-02
   7.265914698050643E-02   7.357308653978450E-02   7.449852204352017E-02
   7.543559809289342E-02   7.638446110794360E-02   7.734525935044742E-02
   7.831814294708475E-02   7.930326391289723E-02   8.030077617503970E-02
   8.131083559683271E-02   8.233360000211602E-02   8.336922919990856E-02
   8.441788500937975E-02   8.547973128513302E-02   8.655493394280944E-02
   8.764366098501197E-02   8.874608252755567E-02   8.986237082604975E-02
   9.099270030281169E-02   9.213724757412201E-02   9.329619147782063E-02
   9.446971310125007E-02   9.565799580955188E-02   9.686122527431647E-02
   9.807958950259586E-02   9.931327886627966E-02   1.005624861318406E-01
   1.018274064904558E-01   1.031082375885044E-01   1.044051795584515E-01
   1.057184350501189E-01   1.070482092623484E-01   1.083947099750667E-01
   1.097581475817491E-01   1.111387351222958E-01   1.125366883163192E-01
   1.139522255968494E-01   1.153855681444669E-01   1.168369399218606E-01
   1.183065677088236E-01   1.197946811376879E-01   1.213015127292040E-01
   1.228272979288741E-01   1.243722751437394E-01   1.259366857796333E-01
   1.275207742789006E-01   1.291247881585919E-01   1.307489780491395E-01
   1.323935977335180E-01   1.340589041868992E-01   1.357451576168048E-01
   1.374526215037635E-01   1.391815626424819E-01   1.409322511835300E-01
   1.427049606755544E-01   1.444999681080202E-01   1.463175539544900E-01
   1.481580022164509E-01   1.500216004676876E-01   1.519086398992187E-01
   1.538194153647949E-01   1.557542254269696E-01   1.577133724037519E-01
   1.596971624158424E-01   1.617059054344668E-01   1.637399153298088E-01
   1.657995099200523E-01   1.678850110210428E-01   1.699967444965697E-01
   1.721350403092853E-01   1.743002325722609E-01   1.764926596011923E-01
   1.787126639672638E-01   1.809605925506735E-01   1.832367965948365E-01
   1.855416317612660E-01   1.878754581851452E-01   1.902386405316017E-01
   1.926315480526845E-01   1.950545546450624E-01   1.975080389084455E-01
   1.999923842047410E-01   2.025079787179565E-01   2.050552155148520E-01
   2.076344926063597E-01   2.102462130097733E-01   2.128907848117184E-01
   2.155686212319205E-01   2.182801406877674E-01   2.210257668596912E-01
   2.238059287573676E-01   2.266210607867487E-01   2.294716028179422E-01
   2.323580002539392E-01   2.352807041002119E-01   2.382401710351830E-01
   2.412368634815814E-01   2.442712496786993E-01   2.473438037555529E-01
   2.504550058049681E-01   2.536053419585955E-01   2.567953044628674E-01
   2.600253917559163E-01   2.632961085454525E-01   2.666079658876288E-01
   2.699614812668938E-01   2.733571786768471E-01   2.767955887021186E-01
   2.802772486012694E-01   2.838027023907426E-01   2.873725009298659E-01
   2.909872020069230E-01   2.946473704263121E-01   2.983535780967946E-01
   3.021064041208599E-01   3.059064348852097E-01   3.097542641523813E-01
   3.136504931535273E-01   3.175957306823547E-01   3.215905931902548E-01
   3.256357048826227E-01   3.297316978163889E-01   3.338792119987837E-01
   3.380788954873354E-01   3.423314044911338E-01   3.466374034733632E-01
   3.509975652551240E-01   3.554125711205666E-01   3.598831109233387E-01
   3.644098831943803E-01   3.689935952510695E-01   3.736349633077393E-01
   3.783347125875928E-01   3.830935774360154E-01   3.879123014353222E-01
   3.927916375209428E-01   3.977323480990662E-01   4.027352051657734E-01
   4.078009904276583E-01   4.129304954239749E-01   4.181245216503160E-01
   4.233838806838451E-01   4.287093943101130E-01   4.341018946514573E-01
   4.395622242970278E-01   4.450912364344419E-01   4.506897949830933E-01
   4.563587747291471E-01   4.620990614622206E-01   4.679115521137954E-01
   4.737971548973623E-01   4.797567894503290E-01   4.857913869777207E-01
   4.919018903976771E-01   4.980892544887904E-01   5.043544460392889E-01
   5.106984439980973E-01   5.171222396278052E-01   5.236268366595476E-01
   5.302132514498450E-01   5.368825131394096E-01   5.436356638139473E-01
   5.504737586669922E-01   5.573978661647754E-01   5.644090682131816E-01
   5.715084603267964E-01   5.786971518000791E-01   5.859762658807001E-01
   5.933469399450421E-01   6.008103256759241E-01   6.083675892425520E-01
   6.160199114827316E-01   6.237684880873837E-01   6.316145297873652E-01
   6.395592625426556E-01   6.476039277339130E-01   6.557497823564380E-01
   6.639980992165908E-01   6.723501671306594E-01   6.808072911262495E-01
   6.893707926461923E-01   6.980420097550205E-01   7.068222973480518E-01
   7.157130273630837E-01   7.247155889947705E-01   7.338313889116843E-01
   7.430618514761057E-01   7.524084189665929E-01   7.618725518033289E-01
   7.714557287763260E-01   7.811594472764847E-01   7.909852235295601E-01
   8.009345928330854E-01   8.110091097962535E-01   8.212103485828381E-01
   8.315399031571555E-01   8.419993875331212E-01   8.525904360264512E-01
   8.633147035100177E-01   8.741738656724349E-01   8.851696192798857E-01
   8.963036824412388E-01   9.075777948765190E-01   9.189937181887284E-01
   9.305532361391121E-01   9.422581549258695E-01   9.541103034663714E-01
   9.661115336829442E-01   9.782637207922223E-01   9.905687635981671E-01
   1.003028584788754E+00   1.015645131236390E+00   1.028420374302129E+00
   1.041356310143689E+00   1.054454960027364E+00   1.067718370643851E+00
   1.081148614428039E+00   1.094747789882847E+00   1.108518021907104E+00
   1.122461462127582E+00   1.136580289235185E+00   1.150876709325369E+00
   1.165352956242864E+00   1.180011291930699E+00   1.194854006783650E+00
   1.209883420006112E+00   1.225101879974475E+00   1.240511764604076E+00
   1.256115481720734E+00
    </PP_RAB>
  </PP_MESH>
  <PP_NLCC size="1135">
   2.998343725134130E-01   2.998343724867456E-01   2.998343724594032E-01
   2.998343724313685E-01   2.998343724026242E-01   2.998343723731522E-01
   2.998343723429341E-01   2.998343723119510E-01   2.998343722801836E-01
   2.998343722476119E-01   2.998343722142158E-01   2.998343721799742E-01
   2.998343721448658E-01   2.998343721088686E-01   2.998343720719601E-01
   2.998343720341173E-01   2.998343719953165E-01   2.998343719555334E-01
   2.998343719147433E-01   2.998343718729206E-01   2.998343718300390E-01
   2.998343717860719E-01   2.998343717409918E-01   2.998343716947705E-01
   2.998343716473791E-01   2.998343715987880E-01   2.998343715489667E-01
   2.998343714978842E-01   2.998343714455087E-01   2.998343713918071E-01
   2.998343713367462E-01   2.998343712802913E-01   2.998343712224074E-01
   2.998343711630579E-01   2.998343711022062E-01   2.998343710398140E-01
   2.998343709758423E-01   2.998343709102511E-01   2.998343708429994E-01
   2.998343707740454E-01   2.998343707033457E-01   2.998343706308562E-01
   2.998343705565317E-01   2.998343704803255E-01   2.998343704021904E-01
   2.998343703220772E-01   2.998343702399359E-01   2.998343701557151E-01
   2.998343700693624E-01   2.998343699808236E-01   2.998343698900434E-01
   2.998343697969650E-01   2.998343697015305E-01   2.998343696036800E-01
   2.998343695033523E-01   2.998343694004849E-01   2.998343692950134E-01
   2.998343691868718E-01   2.998343690759926E-01   2.998343689623066E-01
   2.998343688457425E-01   2.998343687262276E-01   2.998343686036872E-01
   2.998343684780447E-01   2.998343683492214E-01   2.998343682171370E-01
   2.998343680817090E-01   2.998343679428524E-01   2.998343678004808E-01
   2.998343676545049E-01   2.998343675048338E-01   2.998343673513735E-01
   2.998343671940285E-01   2.998343670327003E-01   2.998343668672879E-01
   2.998343666976883E-01   2.998343665237951E-01   2.998343663454998E-01
   2.998343661626910E-01   2.998343659752544E-01   2.998343657830727E-01
   2.998343655860259E-01   2.998343653839909E-01   2.998343651768413E-01
   2.998343649644478E-01   2.998343647466774E-01   2.998343645233942E-01
   2.998343642944585E-01   2.998343640597274E-01   2.998343638190539E-01
   2.998343635722878E-01   2.998343633192747E-01   2.998343630598567E-01
   2.998343627938713E-01   2.998343625211526E-01   2.998343622415300E-01
   2.998343619548286E-01   2.998343616608694E-01   2.998343613594686E-01
   2.998343610504378E-01   2.998343607335838E-01   2.998343604087085E-01
   2.998343600756092E-01   2.998343597340773E-01   2.998343593838995E-01
   2.998343590248569E-01   2.998343586567252E-01   2.998343582792740E-01
   2.998343578922678E-01   2.998343574954643E-01   2.998343570886157E-01
   2.998343566714677E-01   2.998343562437597E-01   2.998343558052241E-01
   2.998343553555869E-01   2.998343548945671E-01   2.998343544218765E-01
   2.998343539372196E-01   2.998343534402937E-01   2.998343529307880E-01
   2.998343524083842E-01   2.998343518727555E-01   2.998343513235675E-01
   2.998343507604766E-01   2.998343501831311E-01   2.998343495911699E-01
   2.998343489842232E-01   2.998343483619116E-01   2.998343477238460E-01
   2.998343470696278E-01   2.998343463988479E-01   2.998343457110872E-01
   2.998343450059157E-01   2.998343442828928E-01   2.998343435415664E-01
   2.998343427814733E-01   2.998343420021383E-01   2.998343412030743E-01
   2.998343403837820E-01   2.998343395437492E-01   2.998343386824508E-01
   2.998343377993485E-01   2.998343368938904E-01   2.998343359655107E-01
   2.998343350136288E-01   2.998343340376499E-01   2.998343330369639E-01
   2.998343320109456E-01   2.998343309589533E-01   2.998343298803299E-01
   2.998343287744009E-01   2.998343276404752E-01   2.998343264778441E-01
   2.998343252857808E-01   2.998343240635403E-01   2.998343228103585E-01
   2.998343215254524E-01   2.998343202080188E-01   2.998343188572342E-01
   2.998343174722541E-01   2.998343160522133E-01   2.998343145962239E-01
   2.998343131033760E-01   2.998343115727365E-01   2.998343100033486E-01
   2.998343083942315E-01   2.998343067443795E-01   2.998343050527612E-01
   2.998343033183194E-01   2.998343015399700E-01   2.998342997166015E-01
   2.998342978470742E-01   2.998342959302197E-01   2.998342939648397E-01
   2.998342919497058E-01   2.998342898835586E-01   2.998342877651067E-01
   2.998342855930259E-01   2.998342833659587E-01   2.998342810825129E-01
   2.998342787412616E-01   2.998342763407411E-01   2.998342738794512E-01
   2.998342713558534E-01   2.998342687683706E-01   2.998342661153853E-01
   2.998342633952392E-01   2.998342606062324E-01   2.998342577466216E-01
   2.998342548146194E-01   2.998342518083933E-01   2.998342487260642E-01
   2.998342455657055E-01   2.998342423253421E-01   2.998342390029484E-01
   2.998342355964481E-01   2.998342321037117E-01   2.998342285225563E-01
   2.998342248507436E-01   2.998342210859785E-01   2.998342172259080E-01
   2.998342132681193E-01   2.998342092101389E-01   2.998342050494300E-01
   2.998342007833925E-01   2.998341964093597E-01   2.998341919245979E-01
   2.998341873263037E-01   2.998341826116033E-01   2.998341777775496E-01
   2.998341728211213E-01   2.998341677392206E-01   2.998341625286710E-01
   2.998341571862156E-01   2.998341517085156E-01   2.998341460921469E-01
   2.998341403335993E-01   2.998341344292733E-01   2.998341283754787E-01
   2.998341221684317E-01   2.998341158042525E-01   2.998341092789635E-01
   2.998341025884861E-01   2.998340957286387E-01   2.998340886951333E-01
   2.998340814835740E-01   2.998340740894535E-01   2.998340665081500E-01
   2.998340587349249E-01   2.998340507649199E-01   2.998340425931533E-01
   2.998340342145176E-01   2.998340256237760E-01   2.998340168155588E-01
   2.998340077843606E-01   2.998339985245367E-01   2.998339890302996E-01
   2.998339792957148E-01   2.998339693146980E-01   2.998339590810109E-01
   2.998339485882568E-01   2.998339378298777E-01   2.998339267991492E-01
   2.998339154891767E-01   2.998339038928912E-01   2.998338920030444E-01
   2.998338798122052E-01   2.998338673127537E-01   2.998338544968775E-01
   2.998338413565660E-01   2.998338278836065E-01   2.998338140695776E-01
   2.998337999058454E-01   2.998337853835569E-01   2.998337704936354E-01
   2.998337552267743E-01   2.998337395734312E-01   2.998337235238223E-01
   2.998337070679162E-01   2.998336901954274E-01   2.998336728958101E-01
   2.998336551582516E-01   2.998336369716653E-01   2.998336183246840E-01
   2.998335992056528E-01   2.998335796026219E-01   2.998335595033386E-01
   2.998335388952404E-01   2.998335177654466E-01   2.998334961007505E-01
   2.998334738876108E-01   2.998334511121440E-01   2.998334277601146E-01
   2.998334038169269E-01   2.998333792676156E-01   2.998333540968368E-01
   2.998333282888580E-01   2.998333018275486E-01   2.998332746963693E-01
   2.998332468783625E-01   2.998332183561411E-01   2.998331891118780E-01
   2.998331591272946E-01   2.998331283836497E-01   2.998330968617275E-01
   2.998330645418264E-01   2.998330314037452E-01   2.998329974267718E-01
   2.998329625896695E-01   2.998329268706643E-01   2.998328902474309E-01
   2.998328526970786E-01   2.998328141961376E-01   2.998327747205438E-01
   2.998327342456238E-01   2.998326927460796E-01   2.998326501959731E-01
   2.998326065687094E-01   2.998325618370200E-01   2.998325159729467E-01
   2.998324689478233E-01   2.998324207322577E-01   2.998323712961142E-01
   2.998323206084939E-01   2.998322686377157E-01   2.998322153512965E-01
   2.998321607159311E-01   2.998321046974711E-01   2.998320472609035E-01
   2.998319883703291E-01   2.998319279889400E-01   2.998318660789963E-01
   2.998318026018029E-01   2.998317375176850E-01   2.998316707859636E-01
   2.998316023649299E-01   2.998315322118193E-01   2.998314602827845E-01
   2.998313865328681E-01   2.998313109159751E-01   2.998312333848431E-01
   2.998311538910138E-01   2.998310723848017E-01   2.998309888152637E-01
   2.998309031301675E-01   2.998308152759578E-01   2.998307251977244E-01
   2.998306328391664E-01   2.998305381425582E-01   2.998304410487124E-01
   2.998303414969440E-01   2.998302394250311E-01   2.998301347691771E-01
   2.998300274639703E-01   2.998299174423431E-01   2.998298046355303E-01
   2.998296889730259E-01   2.998295703825391E-01   2.998294487899490E-01
   2.998293241192586E-01   2.998291962925469E-01   2.998290652299206E-01
   2.998289308494637E-01   2.998287930671870E-01   2.998286517969747E-01
   2.998285069505314E-01   2.998283584373266E-01   2.998282061645378E-01
   2.998280500369933E-01   2.998278899571119E-01   2.998277258248421E-01
   2.998275575376002E-01   2.998273849902054E-01   2.998272080748142E-01
   2.998270266808536E-01   2.998268406949514E-01   2.998266500008657E-01
   2.998264544794116E-01   2.998262540083878E-01   2.998260484624994E-01
   2.998258377132799E-01   2.998256216290107E-01   2.998254000746392E-01
   2.998251729116941E-01   2.998249399981989E-01   2.998247011885832E-01
   2.998244563335918E-01   2.998242052801914E-01   2.998239478714748E-01
   2.998236839465632E-01   2.998234133405054E-01   2.998231358841748E-01
   2.998228514041637E-01   2.998225597226749E-01   2.998222606574109E-01
   2.998219540214595E-01   2.998216396231775E-01   2.998213172660704E-01
   2.998209867486701E-01   2.998206478644093E-01   2.998203004014909E-01
   2.998199441427578E-01   2.998195788655557E-01   2.998192043415942E-01
   2.998188203368051E-01   2.998184266111948E-01   2.998180229186955E-01
   2.998176090070104E-01   2.998171846174572E-01   2.998167494848054E-01
   2.998163033371116E-01   2.998158458955487E-01   2.998153768742323E-01
   2.998148959800418E-01   2.998144029124375E-01   2.998138973632725E-01
   2.998133790166004E-01   2.998128475484783E-01   2.998123026267634E-01
   2.998117439109066E-01   2.998111710517392E-01   2.998105836912549E-01
   2.998099814623859E-01   2.998093639887742E-01   2.998087308845357E-01
   2.998080817540200E-01   2.998074161915626E-01   2.998067337812318E-01
   2.998060340965690E-01   2.998053167003217E-01   2.998045811441715E-01
   2.998038269684528E-01   2.998030537018668E-01   2.998022608611864E-01
   2.998014479509549E-01   2.998006144631759E-01   2.997997598769969E-01
   2.997988836583834E-01   2.997979852597853E-01   2.997970641197956E-01
   2.997961196627991E-01   2.997951512986136E-01   2.997941584221204E-01
   2.997931404128876E-01   2.997920966347818E-01   2.997910264355714E-01
   2.997899291465190E-01   2.997888040819638E-01   2.997876505388942E-01
   2.997864677965077E-01   2.997852551157620E-01   2.997840117389129E-01
   2.997827368890418E-01   2.997814297695697E-01   2.997800895637610E-01
   2.997787154342131E-01   2.997773065223339E-01   2.997758619478058E-01
   2.997743808080356E-01   2.997728621775926E-01   2.997713051076293E-01
   2.997697086252904E-01   2.997680717331051E-01   2.997663934083650E-01
   2.997646726024853E-01   2.997629082403510E-01   2.997610992196457E-01
   2.997592444101639E-01   2.997573426531060E-01   2.997553927603550E-01
   2.997533935137352E-01   2.997513436642527E-01   2.997492419313156E-01
   2.997470870019358E-01   2.997448775299096E-01   2.997426121349781E-01
   2.997402894019663E-01   2.997379078799006E-01   2.997354660811037E-01
   2.997329624802674E-01   2.997303955135007E-01   2.997277635773554E-01
   2.997250650278260E-01   2.997222981793244E-01   2.997194613036301E-01
   2.997165526288117E-01   2.997135703381236E-01   2.997105125688723E-01
   2.997073774112566E-01   2.997041629071771E-01   2.997008670490158E-01
   2.996974877783852E-01   2.996940229848460E-01   2.996904705045925E-01
   2.996868281191040E-01   2.996830935537633E-01   2.996792644764401E-01
   2.996753384960382E-01   2.996713131610070E-01   2.996671859578143E-01
   2.996629543093819E-01   2.996586155734813E-01   2.996541670410883E-01
   2.996496059346976E-01   2.996449294065935E-01   2.996401345370784E-01
   2.996352183326557E-01   2.996301777241677E-01   2.996250095648859E-01
   2.996197106285545E-01   2.996142776073829E-01   2.996087071099894E-01
   2.996029956592928E-01   2.995971396903502E-01   2.995911355481410E-01
   2.995849794852958E-01   2.995786676597674E-01   2.995721961324436E-01
   2.995655608647002E-01   2.995587577158919E-01   2.995517824407821E-01
   2.995446306869052E-01   2.995372979918658E-01   2.995297797805679E-01
   2.995220713623760E-01   2.995141679282042E-01   2.995060645475328E-01
   2.994977561653501E-01   2.994892375990173E-01   2.994805035350552E-01
   2.994715485258505E-01   2.994623669862790E-01   2.994529531902457E-01
   2.994433012671362E-01   2.994334051981820E-01   2.994232588127327E-01
   2.994128557844356E-01   2.994021896273214E-01   2.993912536917896E-01
   2.993800411604959E-01   2.993685450441352E-01   2.993567581771212E-01
   2.993446732131562E-01   2.993322826206929E-01   2.993195786782802E-01
   2.993065534697962E-01   2.992931988795596E-01   2.992795065873218E-01
   2.992654680631329E-01   2.992510745620810E-01   2.992363171188996E-01
   2.992211865424425E-01   2.992056734100205E-01   2.991897680615975E-01
   2.991734605938438E-01   2.991567408540403E-01   2.991395984338331E-01
   2.991220226628327E-01   2.991040026020547E-01   2.990855270371989E-01
   2.990665844717616E-01   2.990471631199784E-01   2.990272508995918E-01
   2.990068354244415E-01   2.989859039968711E-01   2.989644435999484E-01
   2.989424408894934E-01   2.989198821859111E-01   2.988967534658226E-01
   2.988730403534913E-01   2.988487281120381E-01   2.988238016344414E-01
   2.987982454343172E-01   2.987720436364719E-01   2.987451799672252E-01
   2.987176377444964E-01   2.986893998676484E-01   2.986604488070833E-01
   2.986307665935858E-01   2.986003348074062E-01   2.985691345670778E-01
   2.985371465179634E-01   2.985043508205226E-01   2.984707271382960E-01
   2.984362546255982E-01   2.984009119149115E-01   2.983646771039778E-01
   2.983275277425771E-01   2.982894408189883E-01   2.982503927461232E-01
   2.982103593473294E-01   2.981693158418501E-01   2.981272368299376E-01
   2.980840962776089E-01   2.980398675010384E-01   2.979945231505781E-01
   2.979480351943969E-01   2.979003749017313E-01   2.978515128257385E-01
   2.978014187859437E-01   2.977500618502718E-01   2.976974103166554E-01
   2.976434316942096E-01   2.975880926839641E-01   2.975313591591435E-01
   2.974731961449854E-01   2.974135677980881E-01   2.973524373852762E-01
   2.972897672619748E-01   2.972255188500824E-01   2.971596526153317E-01
   2.970921280441277E-01   2.970229036198527E-01   2.969519367986276E-01
   2.968791839845179E-01   2.968046005041738E-01   2.967281405808932E-01
   2.966497573080962E-01   2.965694026221996E-01   2.964870272748801E-01
   2.964025808047134E-01   2.963160115081800E-01   2.962272664100224E-01
   2.961362912329448E-01   2.960430303666408E-01   2.959474268361394E-01
   2.958494222694550E-01   2.957489568645302E-01   2.956459693554588E-01
   2.955403969779777E-01   2.954321754342131E-01   2.953212388566715E-01
   2.952075197714614E-01   2.950909490607331E-01   2.949714559243266E-01
   2.948489678406124E-01   2.947234105265162E-01   2.945947078967134E-01
   2.944627820219815E-01   2.943275530867016E-01   2.941889393454930E-01
   2.940468570789738E-01   2.939012205486342E-01   2.937519419508121E-01
   2.935989313697609E-01   2.934420967297996E-01   2.932813437465345E-01
   2.931165758771448E-01   2.929476942697209E-01   2.927745977116508E-01
   2.925971825770420E-01   2.924153427731760E-01   2.922289696859875E-01
   2.920379521245610E-01   2.918421762646420E-01   2.916415255911584E-01
   2.914358808397469E-01   2.912251199372852E-01   2.910091179414265E-01
   2.907877469791372E-01   2.905608761842388E-01   2.903283716339575E-01
   2.900900962844840E-01   2.898459099055491E-01   2.895956690140247E-01
   2.893392268065547E-01   2.890764330912307E-01   2.888071342183223E-01
   2.885311730100779E-01   2.882483886896125E-01   2.879586168089034E-01
   2.876616891759118E-01   2.873574337808600E-01   2.870456747216871E-01
   2.867262321287158E-01   2.863989220885643E-01   2.860635565673373E-01
   2.857199433331416E-01   2.853678858779647E-01   2.850071833389704E-01
   2.846376304192597E-01   2.842590173081561E-01   2.838711296010775E-01
   2.834737482190602E-01   2.830666493280073E-01   2.826496042577405E-01
   2.822223794209373E-01   2.817847362320438E-01   2.813364310262602E-01
   2.808772149786997E-01   2.804068340238351E-01   2.799250287753465E-01
   2.794315344464989E-01   2.789260807711839E-01   2.784083919257666E-01
   2.778781864518919E-01   2.773351771804130E-01   2.767790711566100E-01
   2.762095695668881E-01   2.756263676671437E-01   2.750291547130081E-01
   2.744176138921848E-01   2.737914222591132E-01   2.731502506722021E-01
   2.724937637338913E-01   2.718216197338185E-01   2.711334705953730E-01
   2.704289618259507E-01   2.697077324712225E-01   2.689694150737634E-01
   2.682136356363961E-01   2.674400135906241E-01   2.666481617705574E-01
   2.658376863927402E-01   2.650081870423245E-01   2.641592566660518E-01
   2.632904815725214E-01   2.624014414402619E-01   2.614917093341337E-01
   2.605608517306265E-01   2.596084285526369E-01   2.586339932143419E-01
   2.576370926768133E-01   2.566172675150452E-01   2.555740519971031E-01
   2.545069741761295E-01   2.534155559959773E-01   2.522993134112768E-01
   2.511577565227741E-01   2.499903897288205E-01   2.487967118939224E-01
   2.475762165353060E-01   2.463283920284877E-01   2.450527218328787E-01
   2.437486847385001E-01   2.424157551349193E-01   2.410534033035645E-01
   2.396610957346229E-01   2.382382954697596E-01   2.367844624719534E-01
   2.352990540237842E-01   2.337815251555480E-01   2.322313291046355E-01
   2.306479178076399E-01   2.290307424267212E-01   2.273792539117923E-01
   2.256929036001368E-01   2.239711438551238E-01   2.222134287457193E-01
   2.204192147685445E-01   2.185879616142739E-01   2.167191329802028E-01
   2.148121974308613E-01   2.128666293085812E-01   2.108819096959640E-01
   2.088575274322299E-01   2.067929801854464E-01   2.046877755826801E-01
   2.025414324001124E-01   2.003534818151956E-01   1.981234687229255E-01
   1.958509531183069E-01   1.935355115471034E-01   1.911767386269258E-01
   1.887742486407208E-01   1.863276772046740E-01   1.838366830125094E-01
   1.813009496581230E-01   1.787201875384110E-01   1.760941358380940E-01
   1.734225645982366E-01   1.707052768700542E-01   1.679421109554869E-01
   1.651329427358584E-01   1.622776880897950E-01   1.593763054013776E-01
   1.564287981592964E-01   1.534352176475541E-01   1.503956657279763E-01
   1.473102977145291E-01   1.441793253390956E-01   1.410030198080171E-01
   1.377817149483225E-01   1.345158104421213E-01   1.312057751471874E-01
   1.278521505012365E-01   1.244555540068425E-01   1.210166827933511E-01
   1.175363172514680E-01   1.140153247355249E-01   1.104546633276310E-01
   1.068553856571317E-01   1.032186427678922E-01   9.954568802498782E-02
   9.583788105139106E-02   9.209669168414110E-02   8.832370393836728E-02
   8.452061996630363E-02   8.068926399714138E-02   7.683158624222036E-02
   7.294966674859048E-02   6.904571918248764E-02   6.512209452265114E-02
   6.118128464174052E-02   5.722592575237870E-02   5.325880169249207E-02
   4.928284702275436E-02   4.530114990695026E-02   4.131732698813716E-02
   3.764347737732694E-02   3.425938384075840E-02   3.114581855304104E-02
   2.828451431340006E-02   2.565813515457049E-02   2.325024706203885E-02
   2.104528946166773E-02   1.902854797221958E-02   1.718612866035886E-02
   1.550493371431212E-02   1.397263813145722E-02   1.257766677028053E-02
   1.130917101197734E-02   1.015700433907971E-02   9.111696347970816E-03
   8.164425009155707E-03   7.306987294036665E-03   6.531768535784734E-03
   5.831711037212369E-03   5.200282482484189E-03   4.631444666233010E-03
   4.119622958719470E-03   3.659676810911170E-03   3.246871493354251E-03
   2.876851171476682E-03   2.545613352394899E-03   2.249484693208015E-03
   1.985098133921140E-03   1.749371304480227E-03   1.539486150337792E-03
   1.352869720919406E-03   1.187176067819098E-03   1.040269202930543E-03
   9.102070701145184E-04   7.952264869707430E-04   6.937290156688115E-04
   6.042677236051490E-04   5.255347959776414E-04   4.563499633204486E-04
   3.956497077338196E-04   3.424772120783349E-04   2.959730168615736E-04
   2.553663499899746E-04   2.199670950332230E-04   1.891583641817668E-04
   1.623896426866403E-04   1.391704722619998E-04   1.190646417055663E-04
   1.016848538465132E-04   8.668783885739577E-05   7.376988495776334E-05
   6.266275858239466E-05   5.312998717675412E-05   4.496347890631810E-05
   3.798045471540417E-05   3.202066933606666E-05   2.694389902012833E-05
   2.262767493986160E-05   1.896524236818092E-05   1.586372690115934E-05
   1.324249011857511E-05   1.103165818699282E-05   9.170807990198098E-06
   7.607796419803397E-06   6.297719471284439E-06   5.201988764880305E-06
   4.287514044499246E-06   3.525981099317808E-06   2.893215400894480E-06
   2.368622552529890E-06   1.934697406889829E-06   1.576594422517005E-06
   1.281752500088862E-06   1.039568165749090E-06   8.411115524092512E-07
   6.788801716927089E-07   5.465859704999621E-07   4.389716284961499E-07
   3.516524777829110E-07   2.809808153581605E-07   2.239297345098026E-07
   1.779939249103214E-07   1.411051847888731E-07   1.115606540758122E-07
   8.796201675235488E-08   6.916413567888208E-08   5.423177576053838E-08
   4.240324322466348E-08   3.305992175145277E-08   2.570082186297858E-08
   1.992137990084462E-08   1.539584858772297E-08   1.186271396195683E-08
   9.112654695249637E-09   6.978630657753126E-09   5.327749198402221E-09
   4.054610987880575E-09   3.075883367496735E-09   2.325888816631865E-09
   1.753030171962986E-09   1.316903305746553E-09   9.859727295870214E-10
   7.357065996011992E-10   5.470853624786395E-10   4.054132465848501E-10
   2.993743627668908E-10   2.202856831196309E-10   1.615079166815617E-10
   1.179825638853205E-10   8.586943661597192E-11   6.226387668841623E-11
   4.497696342511024E-11   3.236531722747804E-11   2.319980543441185E-11
   1.656464531402384E-11   1.178016627490423E-11   8.343914620435688E-12
   5.885922461691369E-12   4.134870308688930E-12   2.892593981708198E-12
   2.014956835505753E-12   1.397557472093310E-12   9.650953532979004E-13
   6.634917377749925E-13   4.540771468779183E-13   3.093220080172081E-13
   2.097145887047545E-13   1.414880941606254E-13   9.497343625224020E-14
   6.341089872158796E-14   4.209682358358748E-14   2.777373931838687E-14
   1.819654850535438E-14   1.182543341924665E-14   7.609529775459881E-15
   4.835274984453442E-15   3.020745817981577E-15   1.841975762927321E-15
   1.085988483857235E-15   5.963591568588952E-16   1.344127567084576E-19
   6.974218966089583E-20   3.262021983001542E-20   0.000000000000000E+00
   0.000000000000000E+00   0.000000000000000E+00   0.000000000000000E+00
   0.000000000000000E+00   0.000000000000000E+00   0.000000000000000E+00
   0.000000000000000E+00   0.000000000000000E+00   0.000000000000000E+00
   0.000000000000000E+00   0.000000000000000E+00   0.000000000000000E+00
   0.000000000000000E+00   0.000000000000000E+00   0.000000000000000E+00
   0.000000000000000E+00   0.000000000000000E+00   0.000000000000000E+00
   0.000000000000000E+00   0.000000000000000E+00   0.000000000000000E+00
   0.000000000000000E+00   0.000000000000000E+00   0.000000000000000E+00
   0.000000000000000E+00   0.000000000000000E+00   0.000000000000000E+00
   0.000000000000000E+00   0.000000000000000E+00   0.000000000000000E+00
   0.000000000000000E+00   0.000000000000000E+00   0.000000000000000E+00
   0.000000000000000E+00   0.000000000000000E+00   0.000000000000000E+00
   0.000000000000000E+00   0.000000000000000E+00   0.000000000000000E+00
   0.000000000000000E+00   0.000000000000000E+00   0.000000000000000E+00
   0.000000000000000E+00   0.000000000000000E+00   0.000000000000000E+00
   0.000000000000000E+00   0.000000000000000E+00   0.000000000000000E+00
   0.000000000000000E+00   0.000000000000000E+00   0.000000000000000E+00
   0.000000000000000E+00   0.000000000000000E+00   0.000000000000000E+00
   0.000000000000000E+00   0.000000000000000E+00   0.000000000000000E+00
   0.000000000000000E+00   0.000000000000000E+00   0.000000000000000E+00
   0.000000000000000E+00   0.000000000000000E+00   0.000000000000000E+00
   0.000000000000000E+00   0.000000000000000E+00   0.000000000000000E+00
   0.000000000000000E+00   0.000000000000000E+00   0.000000000000000E+00
   0.000000000000000E+00   0.000000000000000E+00   0.000000000000000E+00
   0.000000000000000E+00   0.000000000000000E+00   0.000000000000000E+00
   0.000000000000000E+00   0.000000000000000E+00   0.000000000000000E+00
   0.000000000000000E+00   0.000000000000000E+00   0.000000000000000E+00
   0.000000000000000E+00   0.000000000000000E+00   0.000000000000000E+00
   0.000000000000000E+00   0.000000000000000E+00   0.000000000000000E+00
   0.000000000000000E+00   0.000000000000000E+00   0.000000000000000E+00
   0.000000000000000E+00   0.000000000000000E+00   0.000000000000000E+00
   0.000000000000000E+00   0.000000000000000E+00   0.000000000000000E+00
   0.000000000000000E+00   0.000000000000000E+00   0.000000000000000E+00
   0.000000000000000E+00   0.000000000000000E+00   0.000000000000000E+00
   0.000000000000000E+00   0.000000000000000E+00   0.000000000000000E+00
   0.000000000000000E+00   0.000000000000000E+00   0.000000000000000E+00
   0.000000000000000E+00   0.000000000000000E+00   0.000000000000000E+00
   0.000000000000000E+00   0.000000000000000E+00   0.000000000000000E+00
   0.000000000000000E+00   0.000000000000000E+00   0.000000000000000E+00
   0.000000000000000E+00   0.000000000000000E+00   0.000000000000000E+00
   0.000000000000000E+00   0.000000000000000E+00   0.000000000000000E+00
   0.000000000000000E+00   0.000000000000000E+00   0.000000000000000E+00
   0.000000000000000E+00   0.000000000000000E+00   0.000000000000000E+00
   0.000000000000000E+00   0.000000000000000E+00   0.000000000000000E+00
   0.000000000000000E+00   0.000000000000000E+00   0.000000000000000E+00
   0.000000000000000E+00   0.000000000000000E+00   0.000000000000000E+00
   0.000000000000000E+00   0.000000000000000E+00   0.000000000000000E+00
   0.000000000000000E+00   0.000000000000000E+00   0.000000000000000E+00
   0.000000000000000E+00   0.000000000000000E+00   0.000000000000000E+00
   0.000000000000000E+00   0.000000000000000E+00   0.000000000000000E+00
   0.000000000000000E+00   0.000000000000000E+00   0.000000000000000E+00
   0.000000000000000E+00   0.000000000000000E+00   0.000000000000000E+00
   0.000000000000000E+00   0.000000000000000E+00   0.000000000000000E+00
   0.000000000000000E+00   0.000000000000000E+00   0.000000000000000E+00
   0.000000000000000E+00   0.000000000000000E+00   0.000000000000000E+00
   0.000000000000000E+00   0.000000000000000E+00   0.000000000000000E+00
   0.000000000000000E+00   0.000000000000000E+00   0.000000000000000E+00
   0.000000000000000E+00   0.000000000000000E+00   0.000000000000000E+00
   0.000000000000000E+00   0.000000000000000E+00   0.000000000000000E+00
   0.000000000000000E+00   0.000000000000000E+00   0.000000000000000E+00
   0.000000000000000E+00   0.000000000000000E+00   0.000000000000000E+00
   0.000000000000000E+00   0.000000000000000E+00   0.000000000000000E+00
   0.000000000000000E+00   0.000000000000000E+00   0.000000000000000E+00
   0.000000000000000E+00   0.000000000000000E+00   0.000000000000000E+00
   0.000000000000000E+00   0.000000000000000E+00   0.000000000000000E+00
   0.000000000000000E+00   0.000000000000000E+00   0.000000000000000E+00
   0.000000000000000E+00   0.000000000000000E+00   0.000000000000000E+00
   0.000000000000000E+00
  </PP_NLCC>
  <PP_LOCAL size="1135">
  -1.129562949970284E+01  -1.129562949971365E+01  -1.129562949972532E+01
  -1.129562949973781E+01  -1.129562949975111E+01  -1.129562949976521E+01
  -1.129562949978007E+01  -1.129562949979569E+01  -1.129562949981205E+01
  -1.129562949982913E+01  -1.129562949984693E+01  -1.129562949986527E+01
  -1.129562949988453E+01  -1.129562949990427E+01  -1.129562949992452E+01
  -1.129562949994885E+01  -1.129562949997256E+01  -1.129562949999453E+01
  -1.129562950001706E+01  -1.129562950004016E+01  -1.129562950006384E+01
  -1.129562950008813E+01  -1.129562950011302E+01  -1.129562950013855E+01
  -1.129562950016764E+01  -1.129562950019830E+01  -1.129562950022598E+01
  -1.129562950025437E+01  -1.129562950028347E+01  -1.129562950031332E+01
  -1.129562950034391E+01  -1.129562950037528E+01  -1.129562950040745E+01
  -1.129562950044371E+01  -1.129562950047761E+01  -1.129562950051236E+01
  -1.129562950055231E+01  -1.129562950058896E+01  -1.129562950062654E+01
  -1.129562950066506E+01  -1.129562950070456E+01  -1.129562950074506E+01
  -1.129562950078659E+01  -1.129562950083289E+01  -1.129562950087664E+01
  -1.129562950092150E+01  -1.129562950096749E+01  -1.129562950101464E+01
  -1.129562950106299E+01  -1.129562950111772E+01  -1.129562950116867E+01
  -1.129562950122092E+01  -1.129562950127449E+01  -1.129562950132942E+01
  -1.129562950138573E+01  -1.129562950144784E+01  -1.129562950150715E+01
  -1.129562950156796E+01  -1.129562950163032E+01  -1.129562950169425E+01
  -1.129562950175980E+01  -1.129562950182701E+01  -1.129562950189592E+01
  -1.129562950196658E+01  -1.129562950204536E+01  -1.129562950211979E+01
  -1.129562950219612E+01  -1.129562950227437E+01  -1.129562950235461E+01
  -1.129562950244208E+01  -1.129562950252656E+01  -1.129562950261318E+01
  -1.129562950270200E+01  -1.129562950279305E+01  -1.129562950288642E+01
  -1.129562950298215E+01  -1.129562950308030E+01  -1.129562950318094E+01
  -1.129562950328413E+01  -1.129562950338992E+01  -1.129562950349840E+01
  -1.129562950360962E+01  -1.129562950373182E+01  -1.129562950384895E+01
  -1.129562950396904E+01  -1.129562950409218E+01  -1.129562950422487E+01
  -1.129562950435448E+01  -1.129562950448736E+01  -1.129562950462362E+01
  -1.129562950476332E+01  -1.129562950490656E+01  -1.129562950505342E+01
  -1.129562950520400E+01  -1.129562950535840E+01  -1.129562950551670E+01
  -1.129562950567901E+01  -1.129562950584543E+01  -1.129562950601606E+01
  -1.129562950619101E+01  -1.129562950637039E+01  -1.129562950655431E+01
  -1.129562950674289E+01  -1.129562950693624E+01  -1.129562950713448E+01
  -1.129562950733774E+01  -1.129562950755789E+01  -1.129562950777187E+01
  -1.129562950799127E+01  -1.129562950822492E+01  -1.129562950845578E+01
  -1.129562950869249E+01  -1.129562950893519E+01  -1.129562950918404E+01
  -1.129562950943919E+01  -1.129562950970079E+01  -1.129562950996901E+01
  -1.129562951024403E+01  -1.129562951052601E+01  -1.129562951081513E+01
  -1.129562951111156E+01  -1.129562951141549E+01  -1.129562951172713E+01
  -1.129562951204665E+01  -1.129562951237426E+01  -1.129562951271016E+01
  -1.129562951305457E+01  -1.129562951340770E+01  -1.129562951376976E+01
  -1.129562951414099E+01  -1.129562951452162E+01  -1.129562951491188E+01
  -1.129562951531202E+01  -1.129562951572229E+01  -1.129562951614294E+01
  -1.129562951657425E+01  -1.129562951701647E+01  -1.129562951746988E+01
  -1.129562951793478E+01  -1.129562951843127E+01  -1.129562951892051E+01
  -1.129562951943517E+01  -1.129562951994982E+01  -1.129562952047748E+01
  -1.129562952101851E+01  -1.129562952157323E+01  -1.129562952214199E+01
  -1.129562952272517E+01  -1.129562952332310E+01  -1.129562952393616E+01
  -1.129562952456474E+01  -1.129562952520923E+01  -1.129562952587004E+01
  -1.129562952654758E+01  -1.129562952724226E+01  -1.129562952795455E+01
  -1.129562952868485E+01  -1.129562952943363E+01  -1.129562953020138E+01
  -1.129562953098856E+01  -1.129562953179567E+01  -1.129562953262319E+01
  -1.129562953347168E+01  -1.129562953434164E+01  -1.129562953523364E+01
  -1.129562953614821E+01  -1.129562953708592E+01  -1.129562953804739E+01
  -1.129562953903317E+01  -1.129562954004392E+01  -1.129562954108026E+01
  -1.129562954214282E+01  -1.129562954323229E+01  -1.129562954434932E+01
  -1.129562954549463E+01  -1.129562954666894E+01  -1.129562954787297E+01
  -1.129562954910748E+01  -1.129562955037325E+01  -1.129562955167106E+01
  -1.129562955300172E+01  -1.129562955436606E+01  -1.129562955576494E+01
  -1.129562955719921E+01  -1.129562955866979E+01  -1.129562956017761E+01
  -1.129562956172359E+01  -1.129562956330872E+01  -1.129562956493396E+01
  -1.129562956660034E+01  -1.129562956830890E+01  -1.129562957006071E+01
  -1.129562957185686E+01  -1.129562957369848E+01  -1.129562957558669E+01
  -1.129562957757561E+01  -1.129562957958809E+01  -1.129562958162543E+01
  -1.129562958371435E+01  -1.129562958585608E+01  -1.129562958805203E+01
  -1.129562959030359E+01  -1.129562959261207E+01  -1.129562959497911E+01
  -1.129562959740608E+01  -1.129562959989439E+01  -1.129562960244567E+01
  -1.129562960506152E+01  -1.129562960774361E+01  -1.129562961049362E+01
  -1.129562961331321E+01  -1.129562961620414E+01  -1.129562961916825E+01
  -1.129562962220742E+01  -1.129562962532355E+01  -1.129562962851851E+01
  -1.129562963179426E+01  -1.129562963515304E+01  -1.129562963859681E+01
  -1.129562964212764E+01  -1.129562964574795E+01  -1.129562964945989E+01
  -1.129562965326573E+01  -1.129562965716790E+01  -1.129562966116887E+01
  -1.129562966527112E+01  -1.129562966947711E+01  -1.129562967378956E+01
  -1.129562967821119E+01  -1.129562968274475E+01  -1.129562968739304E+01
  -1.129562969215898E+01  -1.129562969704551E+01  -1.129562970205567E+01
  -1.129562970719274E+01  -1.129562971245983E+01  -1.129562971786012E+01
  -1.129562972339711E+01  -1.129562972907427E+01  -1.129562973489507E+01
  -1.129562974086322E+01  -1.129562974698236E+01  -1.129562975325632E+01
  -1.129562975968910E+01  -1.129562976628468E+01  -1.129562977304716E+01
  -1.129562977998075E+01  -1.129562978708983E+01  -1.129562979437885E+01
  -1.129562980185232E+01  -1.129562980951486E+01  -1.129562981737124E+01
  -1.129562982542650E+01  -1.129562983368564E+01  -1.129562984215371E+01
  -1.129562985083609E+01  -1.129562985973816E+01  -1.129562986886543E+01
  -1.129562987822367E+01  -1.129562988781869E+01  -1.129562989765653E+01
  -1.129562990774330E+01  -1.129562991808523E+01  -1.129562992868887E+01
  -1.129562993956078E+01  -1.129562995070777E+01  -1.129562996213678E+01
  -1.129562997385492E+01  -1.129562998586949E+01  -1.129562999818802E+01
  -1.129563001081831E+01  -1.129563002376810E+01  -1.129563003704541E+01
  -1.129563005065865E+01  -1.129563006461626E+01  -1.129563007892694E+01
  -1.129563009359966E+01  -1.129563010864351E+01  -1.129563012406789E+01
  -1.129563013988247E+01  -1.129563015609704E+01  -1.129563017272171E+01
  -1.129563018976690E+01  -1.129563020724324E+01  -1.129563022516162E+01
  -1.129563024353310E+01  -1.129563026236922E+01  -1.129563028168174E+01
  -1.129563030148259E+01  -1.129563032178422E+01  -1.129563034259933E+01
  -1.129563036394079E+01  -1.129563038582192E+01  -1.129563040825634E+01
  -1.129563043125793E+01  -1.129563045484117E+01  -1.129563047902071E+01
  -1.129563050381151E+01  -1.129563052922916E+01  -1.129563055528939E+01
  -1.129563058200842E+01  -1.129563060940295E+01  -1.129563063748997E+01
  -1.129563066628693E+01  -1.129563069581180E+01  -1.129563072608301E+01
  -1.129563075711929E+01  -1.129563078893996E+01  -1.129563082156489E+01
  -1.129563085501433E+01  -1.129563088930905E+01  -1.129563092447034E+01
  -1.129563096052011E+01  -1.129563099748088E+01  -1.129563103537552E+01
  -1.129563107422744E+01  -1.129563111406096E+01  -1.129563115490085E+01
  -1.129563119677235E+01  -1.129563123970147E+01  -1.129563128371498E+01
  -1.129563132884010E+01  -1.129563137510487E+01  -1.129563142253810E+01
  -1.129563147116906E+01  -1.129563152102797E+01  -1.129563157214586E+01
  -1.129563162455431E+01  -1.129563167828589E+01  -1.129563173337385E+01
  -1.129563178985227E+01  -1.129563184775635E+01  -1.129563190712185E+01
  -1.129563196798546E+01  -1.129563203038497E+01  -1.129563209435896E+01
  -1.129563215994706E+01  -1.129563222718983E+01  -1.129563229612888E+01
  -1.129563236680688E+01  -1.129563243926747E+01  -1.129563251355543E+01
  -1.129563258971672E+01  -1.129563266779835E+01  -1.129563274784855E+01
  -1.129563282991673E+01  -1.129563291405358E+01  -1.129563300031099E+01
  -1.129563308874206E+01  -1.129563317940143E+01  -1.129563327234505E+01
  -1.129563336762999E+01  -1.129563346531496E+01  -1.129563356546030E+01
  -1.129563366812752E+01  -1.129563377337967E+01  -1.129563388128164E+01
  -1.129563399189977E+01  -1.129563410530185E+01  -1.129563422155758E+01
  -1.129563434073841E+01  -1.129563446291745E+01  -1.129563458816957E+01
  -1.129563471657157E+01  -1.129563484820219E+01  -1.129563498314192E+01
  -1.129563512147336E+01  -1.129563526328124E+01  -1.129563540865223E+01
  -1.129563555767503E+01  -1.129563571044071E+01  -1.129563586704255E+01
  -1.129563602757599E+01  -1.129563619213894E+01  -1.129563636083167E+01
  -1.129563653375680E+01  -1.129563671101958E+01  -1.129563689272776E+01
  -1.129563707899161E+01  -1.129563726992428E+01  -1.129563746564159E+01
  -1.129563766626212E+01  -1.129563787190740E+01  -1.129563808270187E+01
  -1.129563829877297E+01  -1.129563852025121E+01  -1.129563874727024E+01
  -1.129563897996690E+01  -1.129563921848139E+01  -1.129563946295738E+01
  -1.129563971354174E+01  -1.129563997038495E+01  -1.129564023364118E+01
  -1.129564050346814E+01  -1.129564078002744E+01  -1.129564106348452E+01
  -1.129564135400858E+01  -1.129564165177290E+01  -1.129564195695506E+01
  -1.129564226973670E+01  -1.129564259030360E+01  -1.129564291884605E+01
  -1.129564325555879E+01  -1.129564360064119E+01  -1.129564395429718E+01
  -1.129564431673549E+01  -1.129564468816979E+01  -1.129564506881854E+01
  -1.129564545890529E+01  -1.129564585865892E+01  -1.129564626831346E+01
  -1.129564668810828E+01  -1.129564711828824E+01  -1.129564755910388E+01
  -1.129564801081147E+01  -1.129564847367302E+01  -1.129564894795642E+01
  -1.129564943393564E+01  -1.129564993189094E+01  -1.129565044210877E+01
  -1.129565096488182E+01  -1.129565150050950E+01  -1.129565204929783E+01
  -1.129565261155939E+01  -1.129565318761388E+01  -1.129565377778781E+01
  -1.129565438241486E+01  -1.129565500183607E+01  -1.129565563639960E+01
  -1.129565628646114E+01  -1.129565695238407E+01  -1.129565763453942E+01
  -1.129565833330599E+01  -1.129565904907066E+01  -1.129565978222828E+01
  -1.129566053318196E+01  -1.129566130234304E+01  -1.129566209013119E+01
  -1.129566289697475E+01  -1.129566372331060E+01  -1.129566456958436E+01
  -1.129566543625054E+01  -1.129566632377248E+01  -1.129566723262258E+01
  -1.129566816328233E+01  -1.129566911624252E+01  -1.129567009200320E+01
  -1.129567109107358E+01  -1.129567211397240E+01  -1.129567316122802E+01
  -1.129567423337823E+01  -1.129567533097023E+01  -1.129567645456105E+01
  -1.129567760471738E+01  -1.129567878201534E+01  -1.129567998704077E+01
  -1.129568122038931E+01  -1.129568248266619E+01  -1.129568377448602E+01
  -1.129568509647316E+01  -1.129568644926148E+01  -1.129568783349408E+01
  -1.129568924982335E+01  -1.129569069891096E+01  -1.129569218142759E+01
  -1.129569369805264E+01  -1.129569524947413E+01  -1.129569683638879E+01
  -1.129569845950151E+01  -1.129570011952478E+01  -1.129570181717894E+01
  -1.129570355319157E+01  -1.129570532829714E+01  -1.129570714323653E+01
  -1.129570899875676E+01  -1.129571089561033E+01  -1.129571283455465E+01
  -1.129571481635150E+01  -1.129571684176648E+01  -1.129571891156827E+01
  -1.129572102652766E+01  -1.129572318741693E+01  -1.129572539500903E+01
  -1.129572765007639E+01  -1.129572995339011E+01  -1.129573230571883E+01
  -1.129573470782727E+01  -1.129573716047517E+01  -1.129573966441599E+01
  -1.129574222039532E+01  -1.129574482914932E+01  -1.129574749140305E+01
  -1.129575020786851E+01  -1.129575297924299E+01  -1.129575580620701E+01
  -1.129575868942179E+01  -1.129576162952710E+01  -1.129576462713888E+01
  -1.129576768284659E+01  -1.129577079721014E+01  -1.129577397075701E+01
  -1.129577720397914E+01  -1.129578049732935E+01  -1.129578385121790E+01
  -1.129578726600847E+01  -1.129579074201429E+01  -1.129579427949369E+01
  -1.129579787864529E+01  -1.129580153960355E+01  -1.129580526243337E+01
  -1.129580904712441E+01  -1.129581289358562E+01  -1.129581680163894E+01
  -1.129582077101271E+01  -1.129582480133491E+01  -1.129582889212561E+01
  -1.129583304278941E+01  -1.129583725260719E+01  -1.129584152072742E+01
  -1.129584584615706E+01  -1.129585022775179E+01  -1.129585466420566E+01
  -1.129585915404039E+01  -1.129586369559382E+01  -1.129586828700791E+01
  -1.129587292621577E+01  -1.129587761092819E+01  -1.129588233861943E+01
  -1.129588710651204E+01  -1.129589191156091E+01  -1.129589675043665E+01
  -1.129590161950754E+01  -1.129590651482098E+01  -1.129591143208366E+01
  -1.129591636664068E+01  -1.129592131345366E+01  -1.129592626707726E+01
  -1.129593122163477E+01  -1.129593617079243E+01  -1.129594110773213E+01
  -1.129594602512251E+01  -1.129595091508864E+01  -1.129595576918049E+01
  -1.129596057833889E+01  -1.129596533286001E+01  -1.129597002235821E+01
  -1.129597463572668E+01  -1.129597916109580E+01  -1.129598358578908E+01
  -1.129598789627751E+01  -1.129599207813118E+01  -1.129599611596769E+01
  -1.129599999339828E+01  -1.129600369297156E+01  -1.129600719611365E+01
  -1.129601048306515E+01  -1.129601353281497E+01  -1.129601632303069E+01
  -1.129601882998532E+01  -1.129602102847993E+01  -1.129602289176222E+01
  -1.129602439144136E+01  -1.129602549739778E+01  -1.129602617768825E+01
  -1.129602639844653E+01  -1.129602612377830E+01  -1.129602531565079E+01
  -1.129602393377683E+01  -1.129602193549256E+01  -1.129601927562920E+01
  -1.129601590637789E+01  -1.129601177714741E+01  -1.129600683441490E+01
  -1.129600102156888E+01  -1.129599427874377E+01  -1.129598654264623E+01
  -1.129597774637255E+01  -1.129596781921650E+01  -1.129595668646776E+01
  -1.129594426919937E+01  -1.129593048404469E+01  -1.129591524296320E+01
  -1.129589845299406E+01  -1.129588001599694E+01  -1.129585982838021E+01
  -1.129583778081499E+01  -1.129581375793449E+01  -1.129578763801878E+01
  -1.129575929266308E+01  -1.129572858642924E+01  -1.129569537648010E+01
  -1.129565951219537E+01  -1.129562083476771E+01  -1.129557917677893E+01
  -1.129553436175511E+01  -1.129548620369903E+01  -1.129543450659956E+01
  -1.129537906391631E+01  -1.129531965803880E+01  -1.129525605971876E+01
  -1.129518802747419E+01  -1.129511530696375E+01  -1.129503763033017E+01
  -1.129495471551157E+01  -1.129486626551858E+01  -1.129477196767572E+01
  -1.129467149282570E+01  -1.129456449449464E+01  -1.129445060801645E+01
  -1.129432944961431E+01  -1.129420061543761E+01  -1.129406368055169E+01
  -1.129391819787848E+01  -1.129376369708626E+01  -1.129359968342525E+01
  -1.129342563650726E+01  -1.129324100902640E+01  -1.129304522541835E+01
  -1.129283768045562E+01  -1.129261773777529E+01  -1.129238472833682E+01
  -1.129213794880637E+01  -1.129187665986445E+01  -1.129160008443356E+01
  -1.129130740582220E+01  -1.129099776578141E+01  -1.129067026247049E+01
  -1.129032394832732E+01  -1.128995782783951E+01  -1.128957085521175E+01
  -1.128916193192547E+01  -1.128872990418608E+01  -1.128827356025204E+01
  -1.128779162764205E+01  -1.128728277021500E+01  -1.128674558511679E+01
  -1.128617859958918E+01  -1.128558026763451E+01  -1.128494896653076E+01
  -1.128428299319114E+01  -1.128358056036169E+01  -1.128283979265013E+01
  -1.128205872238040E+01  -1.128123528526562E+01  -1.128036731589195E+01
  -1.127945254300723E+01  -1.127848858460685E+01  -1.127747294280874E+01
  -1.127640299851061E+01  -1.127527600582183E+01  -1.127408908626119E+01
  -1.127283922271275E+01  -1.127152325313239E+01  -1.127013786399571E+01
  -1.126867958347944E+01  -1.126714477436785E+01  -1.126552962667533E+01
  -1.126383014997728E+01  -1.126204216543984E+01  -1.126016129754024E+01
  -1.125818296546979E+01  -1.125610237421034E+01  -1.125391450527626E+01
  -1.125161410711371E+01  -1.124919568514951E+01  -1.124665349148194E+01
  -1.124398151420554E+01  -1.124117346636401E+01  -1.123822277452412E+01
  -1.123512256696470E+01  -1.123186566147580E+01  -1.122844455276314E+01
  -1.122485139945429E+01  -1.122107801070307E+01  -1.121711583239181E+01
  -1.121295593292948E+01  -1.120858898864623E+01  -1.120400526878786E+01
  -1.119919462011230E+01  -1.119414645109431E+01  -1.118884971574566E+01
  -1.118329289706011E+01  -1.117746399009501E+01  -1.117135048470401E+01
  -1.116493934793783E+01  -1.115821700613340E+01  -1.115116932671475E+01
  -1.114378159973247E+01  -1.113603851917313E+01  -1.112792416407324E+01
  -1.111942197947718E+01  -1.111051475728440E+01  -1.110118461703450E+01
  -1.109141298668590E+01  -1.108118058344933E+01  -1.107046739474352E+01
  -1.105925265934791E+01  -1.104751484883375E+01  -1.103523164936322E+01
  -1.102237994395435E+01  -1.100893579531820E+01  -1.099487442938357E+01
  -1.098017021963514E+01  -1.096479667240008E+01  -1.094872641322977E+01
  -1.093193117453430E+01  -1.091438178463864E+01  -1.089604815844260E+01
  -1.087689928987849E+01  -1.085690324637474E+01  -1.083602716554651E+01
  -1.081423725434805E+01  -1.079149879093775E+01  -1.076777612951989E+01
  -1.074303270844239E+01  -1.071723106184625E+01  -1.069033283517647E+01
  -1.066229880487953E+01  -1.063308890262878E+01  -1.060266224443334E+01
  -1.057097716500025E+01  -1.053799125773549E+01  -1.050366142078071E+01
  -1.046794390949670E+01  -1.043079439581578E+01  -1.039216803489439E+01
  -1.035201953950764E+01  -1.031030326263321E+01  -1.026697328867653E+01
  -1.022198353379265E+01  -1.017528785575891E+01  -1.012684017385003E+01
  -1.007659459916070E+01  -1.002450557581004E+01  -9.970528033448815E+00
  -9.914617551472539E+00  -9.856730535320619E+00  -9.796824405213949E+00
  -9.734857797652802E+00  -9.670790779958933E+00  -9.604585078104256E+00
  -9.536204318022667E+00  -9.465614280549891E+00  -9.392783170082707E+00
  -9.317681896991303E+00  -9.240284373757365E+00  -9.160567824753020E+00
  -9.078513109516706E+00  -8.994105059328211E+00  -8.907332826840955E+00
  -8.818190248494453E+00  -8.726676219416913E+00  -8.632795080539148E+00
  -8.536557017683633E+00  -8.437978472487643E+00  -8.337082565170959E+00
  -8.233899529389582E+00  -8.128467159754479E+00  -8.020831273059532E+00
  -7.911046184899940E+00  -7.799175204214615E+00  -7.685291149412458E+00
  -7.569476891220495E+00  -7.451825929309203E+00  -7.332443012229425E+00
  -7.211444813377970E+00  -7.088960679769500E+00  -6.965133475549136E+00
  -6.840120548673845E+00  -6.714094857295316E+00  -6.587246302366011E+00
  -6.459783325082683E+00  -6.331934842030332E+00  -6.203952606995959E+00
  -6.076114105361954E+00  -5.948726102416531E+00  -5.822128976156383E+00
  -5.696701959547044E+00  -5.572869381607649E+00  -5.451107905763191E+00
  -5.331954577101444E+00  -5.216015145802546E+00  -5.103971544224422E+00
  -4.996586446529182E+00  -4.894701409627460E+00  -4.799223100403408E+00
  -4.711121374521987E+00  -4.651614088853309E+00  -4.614617953500828E+00
  -4.553883543951393E+00  -4.474311295013166E+00  -4.398841097426302E+00
  -4.327014569065167E+00  -4.258217042916172E+00  -4.191757769228573E+00
  -4.126979518469880E+00  -4.063375936277580E+00  -4.000687559260775E+00
  -3.938949446867035E+00  -3.878475692104169E+00  -3.819784356546478E+00
  -3.763483223057982E+00  -3.710145589908330E+00  -3.660203721105912E+00
  -3.613877929380149E+00  -3.571146808796628E+00  -3.531753847942052E+00
  -3.495240225912208E+00  -3.460993041841002E+00  -3.428300910105917E+00
  -3.396412767955103E+00  -3.364599416723614E+00  -3.332094019128559E+00
  -3.297764129901962E+00  -3.260777618136197E+00  -3.221653642280604E+00
  -3.181633992397482E+00  -3.141880148797188E+00  -3.102645080277211E+00
  -3.063919905685100E+00  -3.025696063521219E+00  -2.987965293007217E+00
  -2.950719616101704E+00  -2.913951320498621E+00  -2.877652943674765E+00
  -2.841817257809549E+00  -2.806437255544049E+00  -2.771506136745798E+00
  -2.737017296131608E+00  -2.702964311613474E+00  -2.669340933413308E+00
  -2.636141073912110E+00  -2.603358798188678E+00  -2.570988313686203E+00
  -2.539023949654915E+00  -2.507460176242289E+00  -2.476291615083579E+00
  -2.445512980513748E+00  -2.415119078152086E+00  -2.385104826684810E+00
  -2.355465243658441E+00  -2.326195439560808E+00  -2.297290613428989E+00
  -2.268746048802124E+00  -2.240557109994713E+00  -2.212719238665728E+00
  -2.185227950661818E+00  -2.158078833112787E+00  -2.131267541758902E+00
  -2.104789798492547E+00  -2.078641389093279E+00  -2.052818161143484E+00
  -2.027316022109596E+00  -2.002130937567602E+00  -1.977258929566019E+00
  -1.952696075113656E+00  -1.928438504777698E+00  -1.904482401382358E+00
  -1.880823998890107E+00  -1.857459580956379E+00  -1.834385480057587E+00
  -1.811598077035944E+00  -1.789093799500334E+00  -1.766869120913539E+00
  -1.744920560148504E+00  -1.723244680569298E+00  -1.701838089291992E+00
  -1.680697436480812E+00  -1.659819414675898E+00  -1.639200758149228E+00
  -1.618838242285675E+00  -1.598728682986851E+00  -1.578868936095298E+00
  -1.559255896836831E+00  -1.539886499279544E+00  -1.520757715807486E+00
  -1.501866556607859E+00  -1.483210069170453E+00  -1.464785337798090E+00
  -1.446589483132317E+00  -1.428619661696032E+00  -1.410873065365279E+00
  -1.393346920972217E+00  -1.376038489891926E+00  -1.358945067541030E+00
  -1.342063982974231E+00  -1.325392598454919E+00  -1.308928309036252E+00
  -1.292668542148235E+00  -1.276610757190733E+00  -1.260752445132104E+00
  -1.245091128113461E+00  -1.229624359058388E+00  -1.214349721287939E+00
  -1.199264828140991E+00  -1.184367322599672E+00  -1.169654876919873E+00
  -1.155125192266732E+00  -1.140775998355000E+00  -1.126605053094214E+00
  -1.112610142238535E+00  -1.098789079041218E+00  -1.085139703913555E+00
  -1.071659884088277E+00  -1.058347513287287E+00  -1.045200511393550E+00
  -1.032216824127195E+00  -1.019394422725638E+00  -1.006731303627653E+00
  -9.942254881613768E-01  -9.818750222360835E-01  -9.696779760377152E-01
  -9.576324437281046E-01  -9.457365431477815E-01  -9.339884155223992E-01
  -9.223862251726266E-01  -9.109281592275402E-01  -8.996124273414603E-01
  -8.884372614141562E-01  -8.774009153144158E-01  -8.665016646069498E-01
  -8.557378062825982E-01  -8.451076584917644E-01  -8.346095602810948E-01
  -8.242418713333841E-01  -8.140029717106189E-01  -8.038912616002059E-01
  -7.939051610642598E-01  -7.840431097920642E-01  -7.743035668556328E-01
  -7.646850104681618E-01  -7.551859377456795E-01  -7.458048644716979E-01
  -7.365403248647380E-01  -7.273908713489152E-01  -7.183550743274133E-01
  -7.094315219588712E-01  -7.006188199366461E-01  -6.919155912708757E-01
  -6.833204760733727E-01  -6.748321313452241E-01  -6.664492307671376E-01
  -6.581704644924312E-01  -6.499945389426339E-01  -6.419201766056909E-01
  -6.339461158366623E-01  -6.260711106609400E-01  -6.182939305799131E-01
  -6.106133603790176E-01  -6.030281999382003E-01  -5.955372640446769E-01
  -5.881393822080302E-01  -5.808333984775743E-01  -5.736181712619377E-01
  -5.664925731509054E-01  -5.594554907394010E-01  -5.525058244536621E-01
  -5.456424883795512E-01  -5.388644100929434E-01  -5.321705304922494E-01
  -5.255598036329543E-01  -5.190311965642234E-01  -5.125836891675237E-01
  -5.062162739972105E-01  -4.999279561231222E-01  -4.937177529750836E-01
  -4.875846941893586E-01  -4.815278214570025E-01  -4.755461883740718E-01
  -4.696388602937234E-01  -4.638049141801162E-01  -4.580434384641428E-01
  -4.523535329009620E-01  -4.467343084292680E-01  -4.411848870323441E-01
  -4.357044016008119E-01  -4.302919957971030E-01  -4.249468239216170E-01
  -4.196680507805237E-01  -4.144548515552336E-01  -4.093064116734647E-01
  -4.042219266819354E-01  -3.992006021205930E-01  -3.942416533986443E-01
  -3.893443056712005E-01  -3.845077930353324E-01  -3.797313612061182E-01
  -3.750142631100865E-01  -3.703557616926709E-01  -3.657551290550549E-01
  -3.612116463404064E-01  -3.567246036215164E-01  -3.522932997898334E-01
  -3.479170424458453E-01  -3.435951477908473E-01  -3.393269405200057E-01
  -3.351117537168457E-01  -3.309489287491681E-01  -3.268378151605491E-01
  -3.227777704283504E-01  -3.187681591601417E-01  -3.148083650181430E-01
  -3.108977371382814E-01  -3.070357173139479E-01  -3.032216583223110E-01
  -2.994549783455431E-01  -2.957350888215449E-01  -2.920614085098605E-01
  -2.884333633903157E-01  -2.848503865733364E-01  -2.813119182113650E-01
  -2.778174054113821E-01  -2.743663021485245E-01  -2.709580691807445E-01
  -2.675921736754499E-01  -2.642680903078006E-01  -2.609852993669049E-01
  -2.577432879100152E-01  -2.545415493662430E-01  -2.513795834574289E-01
  -2.482568961199655E-01  -2.451729994276022E-01  -2.421274115150953E-01
  -2.391196565033715E-01  -2.361492644244691E-01  -2.332157711485816E-01
  -2.303187183114147E-01  -2.274576532425712E-01  -2.246321288948110E-01
  -2.218417037742081E-01  -2.190859418711595E-01  -2.163644125922598E-01
  -2.136766906930245E-01  -2.110223562114368E-01  -2.084009944023355E-01
  -2.058121956726037E-01  -2.032555555171719E-01  -2.007306744558162E-01
  -1.982371579707322E-01  -1.957746164448982E-01  -1.933426651011893E-01
  -1.909409239422598E-01  -1.885690176911691E-01  -1.862265757327381E-01
  -1.839132320556468E-01  -1.816286251952384E-01  -1.793723981770419E-01
  -1.771441984609973E-01  -1.749436778863638E-01  -1.727704926173265E-01
  -1.706243030892651E-01  -1.685047739556982E-01  -1.664115740358884E-01
  -1.643443762630878E-01  -1.623028576334403E-01  -1.602866991555056E-01
  -1.582955858004192E-01  -1.563292064526695E-01  -1.543872538614816E-01
  -1.524694245928134E-01  -1.505754189819395E-01  -1.487049410866287E-01
  -1.468576986409059E-01  -1.450334030093794E-01  -1.432317691421465E-01
  -1.414525155302493E-01  -1.396953641616905E-01  -1.379600404779949E-01
  -1.362462733313052E-01  -1.345537949420196E-01  -1.328823408569452E-01
  -1.312316499079803E-01  -1.296014641713071E-01  -1.279915289270862E-01
  -1.264015926196616E-01  -1.248314068182497E-01  -1.232807261781241E-01
  -1.217493084022810E-01  -1.202369142035760E-01  -1.187433072673398E-01
  -1.172682542144493E-01  -1.158115245648632E-01  -1.143728907016114E-01
  -1.129521278352246E-01  -1.115490139686154E-01  -1.101633298623871E-01
  -1.087948590005782E-01  -1.074433875568336E-01  -1.061087043609895E-01
  -1.047906008660820E-01  -1.034888711157580E-01  -1.022033117120951E-01
  -1.009337217838220E-01  -9.967990295492832E-02  -9.844165931367216E-02
  -9.721879738196487E-02  -9.601112608514117E-02  -9.481845672210489E-02
  -9.364060293584056E-02  -9.247738068429871E-02  -9.132860821163548E-02
  -9.019410601981447E-02  -8.907369684056060E-02  -8.796720560765958E-02
  -8.687445942960587E-02  -8.579528756258549E-02  -8.472952138379808E-02
  -8.367699436511100E-02  -8.263754204703515E-02  -8.161100201303194E-02
  -8.059721386413211E-02  -7.959601919387445E-02  -7.860726156355556E-02
  -7.763078647778331E-02  -7.666644136033969E-02  -7.571407553033765E-02
  -7.477354017867835E-02  -7.384468834480029E-02  -7.292737489371384E-02
  -7.202145649332690E-02  -7.112679159204573E-02  -7.024324039665902E-02
  -6.937066485049569E-02  -6.850892861185059E-02  -6.765789703268386E-02
  -6.681743713757961E-02  -6.598741760296893E-02  -6.516770873661140E-02
  -6.435818245732843E-02  -6.355871227499243E-02  -6.276917327076056E-02
  -6.198944207755690E-02  -6.121939686079662E-02  -6.045891729934734E-02
  -5.970788456673105E-02
  </PP_LOCAL>
  <PP_NONLOCAL>
    <PP_BETA.1 index="1" label="3S" angular_momentum="0" cutoff_radius_index="835" cutoff_radius="2.0000000000000000" ultrasoft_cutoff_radius="2.1000000000000001">
  -4.775140131327300E-04  -4.835204005773307E-04  -4.896023390971349E-04
  -4.957607790085135E-04  -5.023696449921338E-04  -5.081774597961428E-04
  -5.147751388132711E-04  -5.214034228729885E-04  -5.274226407010417E-04
  -5.343357848826555E-04  -5.412679458036789E-04  -5.478080909268185E-04
  -5.547787585649738E-04  -5.618127852757724E-04  -5.691057065124268E-04
  -5.758066053941618E-04  -5.831255283313987E-04  -5.908101066260897E-04
  -5.979072349589752E-04  -6.054600278042059E-04  -6.132086741134136E-04
  -6.207918589928594E-04  -6.286192873224119E-04  -6.364715739478521E-04
  -6.446992262230775E-04  -6.526041940124268E-04  -6.608817485279268E-04
  -6.692609162386777E-04  -6.775795234369622E-04  -6.861874820589459E-04
  -6.948533121348692E-04  -7.034691579477271E-04  -7.125826075828744E-04
  -7.212108856183036E-04  -7.303498064156820E-04  -7.396352546242576E-04
  -7.490491065647981E-04  -7.582778279351132E-04  -7.677281456574874E-04
  -7.775296961321141E-04  -7.872821120452002E-04  -7.972446555087370E-04
  -8.073458721776362E-04  -8.173630422861093E-04  -8.275853387911002E-04
  -8.380780132028975E-04  -8.485234793561150E-04  -8.595263129727334E-04
  -8.700781488123750E-04  -8.810530226670320E-04  -8.923079582556885E-04
  -9.031713868725903E-04  -9.147100521683287E-04  -9.263057838199023E-04
  -9.376951474148708E-04  -9.496749926528841E-04  -9.615443735647073E-04
  -9.737729294998381E-04  -9.859469348399365E-04  -9.984080130393410E-04
  -1.010893083026410E-03  -1.023694318814289E-03  -1.036416081430579E-03
  -1.049473978565241E-03  -1.062896122471994E-03  -1.075928981845197E-03
  -1.089759877677081E-03  -1.103257180401229E-03  -1.117321837027804E-03
  -1.131215083899934E-03  -1.145541667727611E-03  -1.159957932842201E-03
  -1.174583671503344E-03  -1.189106600709017E-03  -1.204414953026244E-03
  -1.219197842599993E-03  -1.234821296650897E-03  -1.250321251393809E-03
  -1.265867783077728E-03  -1.282020513155118E-03  -1.297953451086003E-03
  -1.314387386989347E-03  -1.330924964715026E-03  -1.347609598836137E-03
  -1.364547989181790E-03  -1.381633289803993E-03  -1.399110346948600E-03
  -1.416815942731516E-03  -1.434439580710467E-03  -1.452693883837609E-03
  -1.470769600020011E-03  -1.489431205835456E-03  -1.508071997064073E-03
  -1.527026773966185E-03  -1.546249460787118E-03  -1.565665748427071E-03
  -1.585427232209755E-03  -1.605419276932912E-03  -1.625500152294370E-03
  -1.646002751906271E-03  -1.666773922444983E-03  -1.687598714203035E-03
  -1.708939153343692E-03  -1.730306895488334E-03  -1.752135240476285E-03
  -1.774131459985506E-03  -1.796495733306877E-03  -1.819084795944896E-03
  -1.842017776051838E-03  -1.865113292642859E-03  -1.888582536189274E-03
  -1.912425948300953E-03  -1.936407923798285E-03  -1.960722199591889E-03
  -1.985543676326662E-03  -2.010374032752528E-03  -2.035725977478853E-03
  -2.061311332045421E-03  -2.087176711775513E-03  -2.113559404713793E-03
  -2.139990163873971E-03  -2.167042706314692E-03  -2.194240900652483E-03
  -2.221866579806616E-03  -2.249783754187551E-03  -2.278054625131178E-03
  -2.306782092407065E-03  -2.335799802373323E-03  -2.365140132035686E-03
  -2.394924434603160E-03  -2.425033652030883E-03  -2.455473072554138E-03
  -2.486439620123357E-03  -2.517665780820994E-03  -2.549362153640431E-03
  -2.581428218093601E-03  -2.613865900816355E-03  -2.646823996944587E-03
  -2.680010258258769E-03  -2.713822390545816E-03  -2.747873153836239E-03
  -2.782523909508226E-03  -2.817485716414206E-03  -2.852903344808234E-03
  -2.888815510888113E-03  -2.925136533908202E-03  -2.961899290035343E-03
  -2.999188144184393E-03  -3.036883511706098E-03  -3.075117305799794E-03
  -3.113768260924622E-03  -3.152971478925227E-03  -3.192646978384445E-03
  -3.232712919928805E-03  -3.273437799637006E-03  -3.314607246661477E-03
  -3.356288646112550E-03  -3.398538265903302E-03  -3.441262655101715E-03
  -3.484513263559039E-03  -3.528384562801828E-03  -3.572769866596897E-03
  -3.617732657190476E-03  -3.663142615821121E-03  -3.709303617430316E-03
  -3.755969139060971E-03  -3.803157694436893E-03  -3.851048290796157E-03
  -3.899464608187686E-03  -3.948526329998125E-03  -3.998169674801431E-03
  -4.048471110148263E-03  -4.099375832869064E-03  -4.150938109084798E-03
  -4.203173886195668E-03  -4.256013957836492E-03  -4.309616764654044E-03
  -4.363767272667931E-03  -4.418650908367718E-03  -4.474266071800790E-03
  -4.530522944446797E-03  -4.587545504296690E-03  -4.645208470137177E-03
  -4.703608840923962E-03  -4.762851050264003E-03  -4.822699381926391E-03
  -4.883409211861192E-03  -4.944817164696230E-03  -5.006990068840053E-03
  -5.070005986016307E-03  -5.133757263772035E-03  -5.198325549521324E-03
  -5.263749189460471E-03  -5.329913429408523E-03  -5.396989694341495E-03
  -5.464836564754190E-03  -5.533608957852156E-03  -5.603220309910393E-03
  -5.673658017175322E-03  -5.745057594783465E-03  -5.817305098363687E-03
  -5.890489646839244E-03  -5.964594915925617E-03  -6.039605453992819E-03
  -6.115591702427595E-03  -6.192477768817154E-03  -6.270379938654220E-03
  -6.349284765840742E-03  -6.429097170443321E-03  -6.510018153647237E-03
  -6.591880998595950E-03  -6.674782995605158E-03  -6.758777916937277E-03
  -6.843780319696187E-03  -6.929840892307661E-03  -7.017001809861898E-03
  -7.105264228326240E-03  -7.194670614395965E-03  -7.285128768361598E-03
  -7.376819944548255E-03  -7.469569082761248E-03  -7.563525888186946E-03
  -7.658672633271309E-03  -7.754988596997539E-03  -7.852574768484631E-03
  -7.951300983185750E-03  -8.051342269811263E-03  -8.152632365616700E-03
  -8.255138132687571E-03  -8.359017536604622E-03  -8.464110230204071E-03
  -8.570621878913817E-03  -8.678419092325036E-03  -8.787550944784828E-03
  -8.898120020845921E-03  -9.010021503065752E-03  -9.123364315288100E-03
  -9.238125686237775E-03  -9.354306916444816E-03  -9.471991097135073E-03
  -9.591105522854432E-03  -9.711760106288974E-03  -9.833923701602115E-03
  -9.957608892265744E-03  -1.008287462328754E-02  -1.020968374411547E-02
  -1.033811450006566E-02  -1.046815958082911E-02  -1.059983112833365E-02
  -1.073314272891667E-02  -1.086816220301306E-02  -1.100487130502101E-02
  -1.114328687299825E-02  -1.128347144225548E-02  -1.142538048211276E-02
  -1.156909465805146E-02  -1.171461536474079E-02  -1.186197577181316E-02
  -1.201117073470217E-02  -1.216226251329444E-02  -1.231523755843404E-02
  -1.247014918680772E-02  -1.262700189596099E-02  -1.278581575690766E-02
  -1.294666263884899E-02  -1.310949602319650E-02  -1.327439014518562E-02
  -1.344137163566784E-02  -1.361044985077366E-02  -1.378164122304301E-02
  -1.395498171752254E-02  -1.413051948087281E-02  -1.430827402351546E-02
  -1.448822345367283E-02  -1.467048276926661E-02  -1.485499794748540E-02
  -1.504186844449412E-02  -1.523105783604358E-02  -1.542264209598696E-02
  -1.561663368759122E-02  -1.581307337604526E-02  -1.601197169994698E-02
  -1.621338058373070E-02  -1.641731396919642E-02  -1.662381123202951E-02
  -1.683292652133936E-02  -1.704465678436358E-02  -1.725904375633980E-02
  -1.747613668087426E-02  -1.769596103200206E-02  -1.791854792885644E-02
  -1.814393782497077E-02  -1.837215385910999E-02  -1.860324235304838E-02
  -1.883724897704076E-02  -1.907418912907712E-02  -1.931410325249067E-02
  -1.955705568848521E-02  -1.980304316883781E-02  -2.005214236451609E-02
  -2.030436192454464E-02  -2.055975316267331E-02  -2.081836241144742E-02
  -2.108022529767794E-02  -2.134538154996028E-02  -2.161387160039342E-02
  -2.188573845394921E-02  -2.216103459984656E-02  -2.243977377625846E-02
  -2.272203675184867E-02  -2.300783812758379E-02  -2.329724398820280E-02
  -2.359028463795829E-02  -2.388700760702535E-02  -2.418746804776292E-02
  -2.449170773700179E-02  -2.479977275350048E-02  -2.511171362676580E-02
  -2.542757414379840E-02  -2.574741339408226E-02  -2.607127759449399E-02
  -2.639920609643057E-02  -2.673126319798964E-02  -2.706750897627877E-02
  -2.740795334390773E-02  -2.775271149039354E-02  -2.810179811741222E-02
  -2.845526376107978E-02  -2.881318704478192E-02  -2.917560190542788E-02
  -2.954259535699319E-02  -2.991417985395725E-02  -3.029045127533837E-02
  -3.067146014623001E-02  -3.105724959285622E-02  -3.144789728288906E-02
  -3.184345922209551E-02  -3.224399767470180E-02  -3.264957372300532E-02
  -3.306024645822539E-02  -3.347608426546232E-02  -3.389716244028072E-02
  -3.432352349302112E-02  -3.475525905988393E-02  -3.519241683478776E-02
  -3.563507514326932E-02  -3.608330536079521E-02  -3.653716552214727E-02
  -3.699674770868697E-02  -3.746209286547074E-02  -3.793330249047609E-02
  -3.841043396511916E-02  -3.889357563747359E-02  -3.938278077707685E-02
  -3.987814619609463E-02  -4.037974771442267E-02  -4.088764909131933E-02
  -4.140193966549083E-02  -4.192270484470577E-02  -4.245000925619358E-02
  -4.298395825327424E-02  -4.352461691491452E-02  -4.407207172012201E-02
  -4.462642462983374E-02  -4.518773390901704E-02  -4.575611540210982E-02
  -4.633164080383396E-02  -4.691440489945846E-02  -4.750449990007032E-02
  -4.810201569916338E-02  -4.870704504704265E-02  -4.931968942961179E-02
  -4.994003522386956E-02  -5.056818770688792E-02  -5.120423244969330E-02
  -5.184828451960261E-02  -5.250043453570169E-02  -5.316078239929553E-02
  -5.382944219781619E-02  -5.450650890905767E-02  -5.519208898908759E-02
  -5.588629534840328E-02  -5.658923173634983E-02  -5.730100817621689E-02
  -5.802173974467675E-02  -5.875152768635231E-02  -5.949050097615399E-02
  -6.023876808482947E-02  -6.099644156591333E-02  -6.176365119890112E-02
  -6.254050101797293E-02  -6.332712743240382E-02  -6.412364559347039E-02
  -6.493018007191823E-02  -6.574685963243412E-02  -6.657380688481895E-02
  -6.741115833848127E-02  -6.825904001665395E-02  -6.911758060888221E-02
  -6.998692339417562E-02  -7.086719523208804E-02  -7.175853833988416E-02
  -7.266109427389031E-02  -7.357499816202798E-02  -7.450039622826327E-02
  -7.543743176423140E-02  -7.638624868437763E-02  -7.734700240905984E-02
  -7.831983549380511E-02  -7.930490203609125E-02  -8.030235645424760E-02
  -8.131235644550977E-02  -8.233505563917104E-02  -8.337061769127721E-02
  -8.441919939483822E-02  -8.548096867364272E-02  -8.655608987946434E-02
  -8.764473206142637E-02  -8.874706072126681E-02  -8.986325331247688E-02
  -9.099348003130062E-02  -9.213791720590706E-02  -9.329675122694181E-02
  -9.447015348511245E-02  -9.565830898882208E-02  -9.686140845991059E-02
  -9.807963228623112E-02  -9.931317487619862E-02  -1.005622289812700E-01
  -1.018269874502888E-01  -1.031076490664368E-01  -1.044044131056640E-01
  -1.057174813582834E-01  -1.070470623821103E-01  -1.083933545360512E-01
  -1.097565794184340E-01  -1.111369400532716E-01  -1.125346585679917E-01
  -1.139499482214257E-01  -1.153830313294576E-01  -1.168341331102857E-01
  -1.183034776584299E-01  -1.197912935607996E-01  -1.212978166889782E-01
  -1.228232783375697E-01  -1.243679161672912E-01  -1.259319725187076E-01
  -1.275156936797586E-01  -1.291193196442504E-01  -1.307431075135816E-01
  -1.323873048917768E-01  -1.340521723397111E-01  -1.357379672685505E-01
  -1.374449511148554E-01  -1.391733943166508E-01  -1.409235599303271E-01
  -1.426957258096697E-01  -1.444901667768941E-01  -1.463071601377056E-01
  -1.481469929295537E-01  -1.500099465113909E-01  -1.518963166799852E-01
  -1.538063928585659E-01  -1.557404743182837E-01  -1.576988623454151E-01
  -1.596818607377333E-01  -1.616897796931688E-01  -1.637229331249532E-01
  -1.657816325196508E-01  -1.678662023034803E-01  -1.699769660087216E-01
  -1.721142505848427E-01  -1.742783926085705E-01  -1.764697240099832E-01
  -1.786885899886038E-01  -1.809353302752866E-01  -1.832102993415193E-01
  -1.855138489323175E-01  -1.878463377742997E-01  -1.902081275187399E-01
  -1.925995858632449E-01  -1.950210848210745E-01  -1.974730003021037E-01
  -1.999557147769199E-01  -2.024696109529214E-01  -2.050150811358762E-01
  -2.075925214358244E-01  -2.102023308596169E-01  -2.128449157388945E-01
  -2.155206856725937E-01  -2.182300547028604E-01  -2.209734463233259E-01
  -2.237512840401281E-01  -2.265640001914102E-01  -2.294120290719333E-01
  -2.322958148026891E-01  -2.352158020170041E-01  -2.381724474369441E-01
  -2.411662042639426E-01  -2.441975398155821E-01  -2.472669230768592E-01
  -2.503748299446295E-01  -2.535217400414838E-01  -2.567081428071869E-01
  -2.599345311610297E-01  -2.632014025812330E-01  -2.665092650452959E-01
  -2.698586287299178E-01  -2.732500125500689E-01  -2.766839401944428E-01
  -2.801609425092333E-01  -2.836815580080272E-01  -2.872463288525815E-01
  -2.908558078282051E-01  -2.945105511001589E-01  -2.982111220366452E-01
  -3.019580930707556E-01  -3.057520426945394E-01  -3.095935546236392E-01
  -3.134832224657573E-01  -3.174216448301362E-01  -3.214094293455453E-01
  -3.254471893353152E-01  -3.295355475724281E-01  -3.336751332519778E-01
  -3.378665822324985E-01  -3.421105410696090E-01  -3.464076610452151E-01
  -3.507586021226494E-01  -3.551640352737593E-01  -3.596246338917697E-01
  -3.641410852619693E-01  -3.687140807270084E-01  -3.733443231134428E-01
  -3.780325218210876E-01  -3.827793946411865E-01  -3.875856693873050E-01
  -3.924520823354225E-01  -3.973793771660716E-01  -4.023683080717197E-01
  -4.074196382542059E-01  -4.125341380358347E-01  -4.177125910988748E-01
  -4.229557847461094E-01  -4.282645216724261E-01  -4.336396098759145E-01
  -4.390818689401150E-01  -4.445921267772159E-01  -4.501712233437971E-01
  -4.558200070812417E-01  -4.615393357910147E-01  -4.673300793173230E-01
  -4.731931165237444E-01  -4.791293375134515E-01  -4.851396421554584E-01
  -4.912249396046067E-01  -4.973861540508542E-01  -5.036242153396715E-01
  -5.099400684899711E-01  -5.163346661055863E-01  -5.228089751461436E-01
  -5.293639713005234E-01  -5.360006432198232E-01  -5.427199898998079E-01
  -5.495230239620350E-01  -5.564107660977540E-01  -5.633842540617877E-01
  -5.704445321899001E-01  -5.775926612278779E-01  -5.848297112647813E-01
  -5.921567660657778E-01  -5.995749218409339E-01  -6.070852879327415E-01
  -6.146889839122491E-01  -6.223871455141761E-01  -6.301809188429131E-01
  -6.380714646938894E-01  -6.460599564776122E-01  -6.541475804408032E-01
  -6.623355376186866E-01  -6.706250405254464E-01  -6.790173184800408E-01
  -6.875136112063114E-01  -6.961151755231298E-01  -7.048232798221248E-01
  -7.136392083712884E-01  -7.225642600893412E-01  -7.315997457586130E-01
  -7.407469947849745E-01  -7.500073480468508E-01  -7.593821628555413E-01
  -7.688728115811363E-01  -7.784806815238361E-01  -7.882071752470035E-01
  -7.980537111866184E-01  -8.080217227162554E-01  -8.181126598741701E-01
  -8.283279878523619E-01  -8.386691885337068E-01  -8.491377593624008E-01
  -8.597352143379755E-01  -8.704630848766355E-01  -8.813229173580881E-01
  -8.923162764170356E-01  -9.034447426754650E-01  -9.147099142704715E-01
  -9.261134066333425E-01  -9.376568524843565E-01  -9.493419019625957E-01
  -9.611702229415582E-01  -9.731435010677592E-01  -9.852634404461376E-01
  -9.975317622984643E-01  -1.009950207153172E+00  -1.022520533301113E+00
  -1.035244517716437E+00  -1.048123955904704E+00  -1.061160662766174E+00
  -1.074356471127336E+00  -1.087713234132285E+00  -1.101232822384489E+00
  -1.114917127923567E+00  -1.128768060086801E+00  -1.142787548701753E+00
  -1.156977543339714E+00  -1.171340012080520E+00  -1.185876944276970E+00
  -1.200590347152610E+00  -1.215482248983191E+00  -1.230554696873797E+00
  -1.245809757978834E+00  -1.261249519269691E+00  -1.276876085923738E+00
  -1.292691584166061E+00  -1.308698158220692E+00  -1.324897971578202E+00
  -1.341293206571863E+00  -1.357886063367033E+00  -1.374678760829484E+00
  -1.391673534863962E+00  -1.408872638250160E+00  -1.426278340429267E+00
  -1.443892926506696E+00  -1.461718696016871E+00  -1.479757963046431E+00
  -1.498013053829089E+00  -1.516486306732469E+00  -1.535180069782450E+00
  -1.554096700852346E+00  -1.573238563397711E+00  -1.592608027149386E+00
  -1.612207463901701E+00  -1.632039246417404E+00  -1.652105745002613E+00
  -1.672409324890178E+00  -1.692952342356570E+00  -1.713737142190847E+00
  -1.734766051920674E+00  -1.756041378510778E+00  -1.777565403427814E+00
  -1.799340375490941E+00  -1.821368507157441E+00  -1.843651965444092E+00
  -1.866192866595101E+00  -1.888993265915689E+00  -1.912055150536715E+00
  -1.935380428443097E+00  -1.958970918378482E+00  -1.982828337549570E+00
  -2.006954289336776E+00  -2.031350248298287E+00  -2.056017545841861E+00
  -2.080957352345067E+00  -2.106170659895220E+00  -2.131658261365764E+00
  -2.157420729016604E+00  -2.183458391577975E+00  -2.209771307398391E+00
  -2.236359237271189E+00  -2.263221614410732E+00  -2.290357511050511E+00
  -2.317765603643613E+00  -2.345444133933179E+00  -2.373390868518101E+00
  -2.401603052360256E+00  -2.430077362720805E+00  -2.458809855183882E+00
  -2.487795909053107E+00  -2.517030166561216E+00  -2.546506467514306E+00
  -2.576217782051564E+00  -2.606156133019289E+00  -2.636312519296603E+00
  -2.666676828248363E+00  -2.697237745898651E+00  -2.727982659357846E+00
  -2.758897552619469E+00  -2.789966897184907E+00  -2.821173534127489E+00
  -2.852498549633127E+00  -2.883921143646971E+00  -2.915418489358728E+00
  -2.946965586665698E+00  -2.978535106239676E+00  -3.010097225631133E+00
  -3.041619457560113E+00  -3.073066469712603E+00  -3.104399895490396E+00
  -3.135578138161021E+00  -3.166556164385158E+00  -3.197285293336254E+00
  -3.227712974129672E+00  -3.257782560269725E+00  -3.287433074926456E+00
  -3.316598970871720E+00  -3.345209887339960E+00  -3.373190399899839E+00
  -3.400459771275623E+00  -3.426931697914876E+00  -3.452514059289179E+00
  -3.477108668522618E+00  -3.500611028422982E+00  -3.522910093870026E+00
  -3.543888045070227E+00  -3.563420073250068E+00  -3.581374183354095E+00
  -3.597611016980151E+00  -3.611983700049075E+00  -3.624337719939861E+00
  -3.634510836359977E+00  -3.642333033487791E+00  -3.647626515775164E+00
  -3.650205758227905E+00  -3.649877613225456E+00  -3.646441485080052E+00
  -3.639689577623443E+00  -3.629407222683271E+00  -3.615373299373381E+00
  -3.597360751201546E+00  -3.575137209515910E+00  -3.548465734577217E+00
  -3.517105679007024E+00  -3.480813687572388E+00  -3.439344836636996E+00
  -3.392453925956305E+00  -3.339896927660380E+00  -3.281432600999123E+00
  -3.216824278027767E+00  -3.145841825811196E+00  -3.068263787994081E+00
  -2.983879708086212E+00  -2.892492633406244E+00  -2.793921797900541E+00
  -2.688005477361177E+00  -2.574604009790580E+00  -2.453602968027713E+00
  -2.324916469039286E+00  -2.188490600654205E+00  -2.044306939619066E+00
  -1.892386133594057E+00  -1.732791509464636E+00  -1.565632670603669E+00
  -1.391069033969389E+00  -1.209313256686093E+00  -1.020634492655960E+00
  -8.253614145829982E-01  -6.238849313833974E-01  -4.166605234921565E-01
  -2.042101152538862E-01   1.287660310928729E-02   2.339414937883326E-01
   4.582580238121707E-01   6.850321467824019E-01   9.134041075300301E-01
   1.142451264205484E+00   1.371192014284839E+00   1.598590906192065E+00
   1.823565006808843E+00   2.044991579551223E+00   2.261717112651759E+00
   2.472567708696993E+00   2.676360823458704E+00   2.871918303275609E+00
   3.058080630921723E+00   3.233722244602573E+00   3.397767735258590E+00
   3.549208671893457E+00   3.687120732393932E+00   3.810680743315785E+00
   3.919183157418984E+00   4.012055407599277E+00   4.088871503581220E+00
   4.149363151539689E+00   4.193427611888846E+00   4.221131461250607E+00
   4.232709390760883E+00   4.228557194002685E+00   4.209218152960811E+00
   4.175362161338616E+00   4.127757146821475E+00   4.067232667808218E+00
   3.994636026666970E+00   3.910781844568221E+00   3.816396835262718E+00
   3.712062515003749E+00   3.598159791162344E+00   3.474820836544177E+00
   3.341895345936805E+00   3.198940205306005E+00   3.045243767558910E+00
   2.879898265832622E+00   2.701936395300353E+00   2.510550661519419E+00
   2.305416669404836E+00   2.087144019429970E+00   1.857880748679201E+00
   1.622099192937356E+00   1.386221538812940E+00   1.153981186498589E+00
   9.282045914461912E-01   7.117931661070722E-01   5.076709949785532E-01
   3.189988926884154E-01   1.467702006519374E-01   1.280830527125890E-02
  -2.730161086468480E-03  -1.212146966893143E-03  -1.378241931389655E-03
  -1.370208427434817E-03  -1.372087510049209E-03  -1.365471118926615E-03
  -1.352056284875275E-03  -1.331583078271483E-03  -1.304024574567529E-03
  -1.269372404519157E-03  -1.227660696321395E-03  -1.178966133612457E-03
  -1.123410581071456E-03  -1.061162850557467E-03  -9.924409012141931E-04
  -9.175133533473225E-04  -8.367010332012709E-04  -7.503781894118654E-04
  -6.589732190232279E-04  -5.629692632404363E-04  -4.629040793687719E-04
  -3.593696218480069E-04  -2.530110136353067E-04  -1.445248262710178E-04
  -3.465690558218603E-05   7.580070860533314E-05   1.860134796371785E-04
   2.951088647046631E-04   4.021817001588901E-04   0.000000000000000E+00
   0.000000000000000E+00   0.000000000000000E+00   0.000000000000000E+00
   0.000000000000000E+00   0.000000000000000E+00   0.000000000000000E+00
   0.000000000000000E+00   0.000000000000000E+00   0.000000000000000E+00
   0.000000000000000E+00   0.000000000000000E+00   0.000000000000000E+00
   0.000000000000000E+00   0.000000000000000E+00   0.000000000000000E+00
   0.000000000000000E+00   0.000000000000000E+00   0.000000000000000E+00
   0.000000000000000E+00   0.000000000000000E+00   0.000000000000000E+00
   0.000000000000000E+00   0.000000000000000E+00   0.000000000000000E+00
   0.000000000000000E+00   0.000000000000000E+00   0.000000000000000E+00
   0.000000000000000E+00   0.000000000000000E+00   0.000000000000000E+00
   0.000000000000000E+00   0.000000000000000E+00   0.000000000000000E+00
   0.000000000000000E+00   0.000000000000000E+00   0.000000000000000E+00
   0.000000000000000E+00   0.000000000000000E+00   0.000000000000000E+00
   0.000000000000000E+00   0.000000000000000E+00   0.000000000000000E+00
   0.000000000000000E+00   0.000000000000000E+00   0.000000000000000E+00
   0.000000000000000E+00   0.000000000000000E+00   0.000000000000000E+00
   0.000000000000000E+00   0.000000000000000E+00   0.000000000000000E+00
   0.000000000000000E+00   0.000000000000000E+00   0.000000000000000E+00
   0.000000000000000E+00   0.000000000000000E+00   0.000000000000000E+00
   0.000000000000000E+00   0.000000000000000E+00   0.000000000000000E+00
   0.000000000000000E+00   0.000000000000000E+00   0.000000000000000E+00
   0.000000000000000E+00   0.000000000000000E+00   0.000000000000000E+00
   0.000000000000000E+00   0.000000000000000E+00   0.000000000000000E+00
   0.000000000000000E+00   0.000000000000000E+00   0.000000000000000E+00
   0.000000000000000E+00   0.000000000000000E+00   0.000000000000000E+00
   0.000000000000000E+00   0.000000000000000E+00   0.000000000000000E+00
   0.000000000000000E+00   0.000000000000000E+00   0.000000000000000E+00
   0.000000000000000E+00   0.000000000000000E+00   0.000000000000000E+00
   0.000000000000000E+00   0.000000000000000E+00   0.000000000000000E+00
   0.000000000000000E+00   0.000000000000000E+00   0.000000000000000E+00
   0.000000000000000E+00   0.000000000000000E+00   0.000000000000000E+00
   0.000000000000000E+00   0.000000000000000E+00   0.000000000000000E+00
   0.000000000000000E+00   0.000000000000000E+00   0.000000000000000E+00
   0.000000000000000E+00   0.000000000000000E+00   0.000000000000000E+00
   0.000000000000000E+00   0.000000000000000E+00   0.000000000000000E+00
   0.000000000000000E+00   0.000000000000000E+00   0.000000000000000E+00
   0.000000000000000E+00   0.000000000000000E+00   0.000000000000000E+00
   0.000000000000000E+00   0.000000000000000E+00   0.000000000000000E+00
   0.000000000000000E+00   0.000000000000000E+00   0.000000000000000E+00
   0.000000000000000E+00   0.000000000000000E+00   0.000000000000000E+00
   0.000000000000000E+00   0.000000000000000E+00   0.000000000000000E+00
   0.000000000000000E+00   0.000000000000000E+00   0.000000000000000E+00
   0.000000000000000E+00   0.000000000000000E+00   0.000000000000000E+00
   0.000000000000000E+00   0.000000000000000E+00   0.000000000000000E+00
   0.000000000000000E+00   0.000000000000000E+00   0.000000000000000E+00
   0.000000000000000E+00   0.000000000000000E+00   0.000000000000000E+00
   0.000000000000000E+00   0.000000000000000E+00   0.000000000000000E+00
   0.000000000000000E+00   0.000000000000000E+00   0.000000000000000E+00
   0.000000000000000E+00   0.000000000000000E+00   0.000000000000000E+00
   0.000000000000000E+00   0.000000000000000E+00   0.000000000000000E+00
   0.000000000000000E+00   0.000000000000000E+00   0.000000000000000E+00
   0.000000000000000E+00   0.000000000000000E+00   0.000000000000000E+00
   0.000000000000000E+00   0.000000000000000E+00   0.000000000000000E+00
   0.000000000000000E+00   0.000000000000000E+00   0.000000000000000E+00
   0.000000000000000E+00   0.000000000000000E+00   0.000000000000000E+00
   0.000000000000000E+00   0.000000000000000E+00   0.000000000000000E+00
   0.000000000000000E+00   0.000000000000000E+00   0.000000000000000E+00
   0.000000000000000E+00   0.000000000000000E+00   0.000000000000000E+00
   0.000000000000000E+00   0.000000000000000E+00   0.000000000000000E+00
   0.000000000000000E+00   0.000000000000000E+00   0.000000000000000E+00
   0.000000000000000E+00   0.000000000000000E+00   0.000000000000000E+00
   0.000000000000000E+00   0.000000000000000E+00   0.000000000000000E+00
   0.000000000000000E+00   0.000000000000000E+00   0.000000000000000E+00
   0.000000000000000E+00   0.000000000000000E+00   0.000000000000000E+00
   0.000000000000000E+00   0.000000000000000E+00   0.000000000000000E+00
   0.000000000000000E+00   0.000000000000000E+00   0.000000000000000E+00
   0.000000000000000E+00   0.000000000000000E+00   0.000000000000000E+00
   0.000000000000000E+00   0.000000000000000E+00   0.000000000000000E+00
   0.000000000000000E+00   0.000000000000000E+00   0.000000000000000E+00
   0.000000000000000E+00   0.000000000000000E+00   0.000000000000000E+00
   0.000000000000000E+00   0.000000000000000E+00   0.000000000000000E+00
   0.000000000000000E+00   0.000000000000000E+00   0.000000000000000E+00
   0.000000000000000E+00   0.000000000000000E+00   0.000000000000000E+00
   0.000000000000000E+00   0.000000000000000E+00   0.000000000000000E+00
   0.000000000000000E+00   0.000000000000000E+00   0.000000000000000E+00
   0.000000000000000E+00   0.000000000000000E+00   0.000000000000000E+00
   0.000000000000000E+00   0.000000000000000E+00   0.000000000000000E+00
   0.000000000000000E+00   0.000000000000000E+00   0.000000000000000E+00
   0.000000000000000E+00   0.000000000000000E+00   0.000000000000000E+00
   0.000000000000000E+00   0.000000000000000E+00   0.000000000000000E+00
   0.000000000000000E+00   0.000000000000000E+00   0.000000000000000E+00
   0.000000000000000E+00   0.000000000000000E+00   0.000000000000000E+00
   0.000000000000000E+00   0.000000000000000E+00   0.000000000000000E+00
   0.000000000000000E+00   0.000000000000000E+00   0.000000000000000E+00
   0.000000000000000E+00   0.000000000000000E+00   0.000000000000000E+00
   0.000000000000000E+00   0.000000000000000E+00   0.000000000000000E+00
   0.000000000000000E+00   0.000000000000000E+00   0.000000000000000E+00
   0.000000000000000E+00   0.000000000000000E+00   0.000000000000000E+00
   0.000000000000000E+00   0.000000000000000E+00   0.000000000000000E+00
   0.000000000000000E+00   0.000000000000000E+00   0.000000000000000E+00
   0.000000000000000E+00   0.000000000000000E+00   0.000000000000000E+00
   0.000000000000000E+00   0.000000000000000E+00   0.000000000000000E+00
   0.000000000000000E+00   0.000000000000000E+00   0.000000000000000E+00
   0.000000000000000E+00
    </PP_BETA.1>
    <PP_BETA.2 index="2" label="3S" angular_momentum="0" cutoff_radius_index="835" cutoff_radius="1.3999999999999999" ultrasoft_cutoff_radius="2.1000000000000001">
   1.059644530021491E-03   1.072973218134691E-03   1.086469560533776E-03
   1.100135666051141E-03   1.114325290287064E-03   1.127851811647453E-03
   1.142273355371242E-03   1.156737905193720E-03   1.170794216172748E-03
   1.185770819191977E-03   1.200902258877840E-03   1.215767418645113E-03
   1.231098301413932E-03   1.246658329425644E-03   1.262573547272421E-03
   1.277985219608073E-03   1.294129436763186E-03   1.310776203468745E-03
   1.326938083336009E-03   1.343626496102813E-03   1.360691925600438E-03
   1.377670213475283E-03   1.395008527414606E-03   1.412484032957116E-03
   1.430519132108678E-03   1.448275580160596E-03   1.466573347758404E-03
   1.485072164309640E-03   1.503654278787152E-03   1.522666278824233E-03
   1.541854377213880E-03   1.561116487409464E-03   1.581011000101025E-03
   1.600570177781377E-03   1.620779229012028E-03   1.641257186976588E-03
   1.662001924369729E-03   1.682711618866790E-03   1.703820839785348E-03
   1.725372276621492E-03   1.747043135377122E-03   1.769107475096447E-03
   1.791394906174412E-03   1.813810586266218E-03   1.836578843380750E-03
   1.859738014569279E-03   1.883025598738923E-03   1.907091871097611E-03
   1.930752680271241E-03   1.955122681633095E-03   1.979876478295743E-03
   2.004390823639567E-03   2.029802604402171E-03   2.055449892859957E-03
   2.081002886913831E-03   2.107381248625495E-03   2.133830691342599E-03
   2.160773320519305E-03   2.187882546378532E-03   2.215473466949892E-03
   2.243252012973995E-03   2.271572850784934E-03   2.299975569074904E-03
   2.328939803607744E-03   2.358453228261926E-03   2.387776050253499E-03
   2.418121877345522E-03   2.448309337918648E-03   2.479301142563651E-03
   2.510333534523457E-03   2.541986151175626E-03   2.573984822354917E-03
   2.606400058482789E-03   2.638901353397633E-03   2.672504435877865E-03
   2.705692672157428E-03   2.740055069170546E-03   2.774473266922044E-03
   2.809187266118935E-03   2.844765021353599E-03   2.880346089458423E-03
   2.916680020212383E-03   2.953368356501438E-03   2.990485864089209E-03
   3.028073028184092E-03   3.066088747834017E-03   3.104739524732687E-03
   3.143912572304969E-03   3.183249388536943E-03   3.223518177748711E-03
   3.263846730796455E-03   3.305081601645083E-03   3.346547289456985E-03
   3.388627761012404E-03   3.431273380942542E-03   3.474406944726029E-03
   3.518164542254379E-03   3.562475140526703E-03   3.607154823981833E-03
   3.652607163912927E-03   3.698602594191804E-03   3.744990525568491E-03
   3.792215282053075E-03   3.839779342017015E-03   3.888148082581591E-03
   3.937006990039476E-03   3.986577848641058E-03   4.036727844023411E-03
   4.087532446256612E-03   4.138883262117888E-03   4.190958605481569E-03
   4.243751274656878E-03   4.297060440141202E-03   4.351076524141156E-03
   4.405957791433489E-03   4.461229192316923E-03   4.517415940375292E-03
   4.574214833816296E-03   4.631690396465345E-03   4.690088325918812E-03
   4.748905775288628E-03   4.808793572512439E-03   4.869206421046776E-03
   4.930495033686238E-03   4.992470884871602E-03   5.055242687352779E-03
   5.118908933916080E-03   5.183285415783165E-03   5.248446665380723E-03
   5.314516946627179E-03   5.381323004259180E-03   5.448967787261799E-03
   5.517582746384869E-03   5.586930396066073E-03   5.657236842807389E-03
   5.728402832154092E-03   5.800410416549905E-03   5.873455670866057E-03
   5.947234362482862E-03   6.022137398264669E-03   6.097796382677002E-03
   6.174594669326900E-03   6.252219480584740E-03   6.330836132932663E-03
   6.410502651645393E-03   6.491114617151542E-03   6.572740166509337E-03
   6.655433698050914E-03   6.739138035394289E-03   6.823927622573890E-03
   6.909737549242379E-03   6.996680766539390E-03   7.084712326883505E-03
   7.173730914431771E-03   7.264034828051217E-03   7.355388713413144E-03
   7.447898927156317E-03   7.541622931852695E-03   7.636457078736329E-03
   7.732470658176154E-03   7.829781111203481E-03   7.928270690990329E-03
   8.028016169472903E-03   8.128904777765693E-03   8.231234807500497E-03
   8.334777927771982E-03   8.439560603911288E-03   8.545776774444500E-03
   8.653240992199732E-03   8.762090485605232E-03   8.872294033322478E-03
   8.983896527084418E-03   9.096885573309128E-03   9.211309557423485E-03
   9.327187220516193E-03   9.444493074377188E-03   9.563351489598294E-03
   9.683582025837731E-03   9.805391801084024E-03   9.928751489249734E-03
   1.005362368305616E-02   1.018011684230200E-02   1.030812919950524E-02
   1.043775578831006E-02   1.056912819117800E-02   1.070200997786848E-02
   1.083666889913203E-02   1.097295993660609E-02   1.111096367246805E-02
   1.125074743261277E-02   1.139225687363465E-02   1.153553407050899E-02
   1.168067925995716E-02   1.182755373653574E-02   1.197636273324471E-02
   1.212696735156846E-02   1.227953748629068E-02   1.243400261352183E-02
   1.259036373966287E-02   1.274876138717534E-02   1.290910607974348E-02
   1.307149496491374E-02   1.323592223562362E-02   1.340239912013215E-02
   1.357099551305896E-02   1.374166207869079E-02   1.391451752102238E-02
   1.408957906443415E-02   1.426674647155914E-02   1.444625579872985E-02
   1.462794453176296E-02   1.481192408077852E-02   1.499827495485092E-02
   1.518691866673821E-02   1.537791991005543E-02   1.557134774056810E-02
   1.576720901273846E-02   1.596556987740871E-02   1.616635109265331E-02
   1.636975439202330E-02   1.657561896914065E-02   1.678412126118379E-02
   1.699524210613649E-02   1.720900423252265E-02   1.742550192137186E-02
   1.764464413717567E-02   1.786660834547964E-02   1.809136430810092E-02
   1.831887984740914E-02   1.854934830181589E-02   1.878261790627571E-02
   1.901892184282977E-02   1.925814105721335E-02   1.950035014802040E-02
   1.974566906661793E-02   1.999401496870356E-02   2.024552235569297E-02
   2.050017917872231E-02   2.075802340516099E-02   2.101914879444019E-02
   2.128350372904671E-02   2.155123719235301E-02   2.182231605469558E-02
   2.209680361982372E-02   2.237475794994227E-02   2.265617733273454E-02
   2.294117015275205E-02   2.322973818381816E-02   2.352193564596941E-02
   2.381778243160921E-02   2.411738688738070E-02   2.442075483367135E-02
   2.472791499256515E-02   2.503897907415629E-02   2.535390569180817E-02
   2.567282237408268E-02   2.599574547220544E-02   2.632274001612986E-02
   2.665382917009149E-02   2.698910183694416E-02   2.732857659947481E-02
   2.767233156071703E-02   2.802040475568216E-02   2.837284403502557E-02
   2.872975147128790E-02   2.909111119212383E-02   2.945702921552287E-02
   2.982756218835719E-02   3.020275492752512E-02   3.058264986438608E-02
   3.096732140433188E-02   3.135684722589788E-02   3.175128340658476E-02
   3.215063930995717E-02   3.255506324261154E-02   3.296453745710028E-02
   3.337919861587153E-02   3.379904324424920E-02   3.422418453323312E-02
   3.465466902243945E-02   3.509057736512595E-02   3.553195694509367E-02
   3.597889630595989E-02   3.643145065917842E-02   3.688969156056040E-02
   3.735372271186580E-02   3.782357115304862E-02   3.829932536174068E-02
   3.878107034886681E-02   3.926887765104382E-02   3.976281949094961E-02
   4.026297568568438E-02   4.076941277604232E-02   4.128222635522177E-02
   4.180149849193939E-02   4.232729171555631E-02   4.285969455754950E-02
   4.339881237836499E-02   4.394469228109615E-02   4.449745573815497E-02
   4.505715972486193E-02   4.562390069877531E-02   4.619777875567956E-02
   4.677887385905628E-02   4.736727893894016E-02   4.796308443095521E-02
   4.856638155118945E-02   4.917727893944232E-02   4.979583941232883E-02
   5.042219866166318E-02   5.105642440193204E-02   5.169863744769407E-02
   5.234892233463845E-02   5.300738419719252E-02   5.367413219595176E-02
   5.434926849056113E-02   5.503289377389904E-02   5.572511942125955E-02
   5.642604822885337E-02   5.713579928552434E-02   5.785447986234876E-02
   5.858218986639525E-02   5.931905834351339E-02   6.006520679074787E-02
   6.082070971773752E-02   6.158574728990103E-02   6.236040020888398E-02
   6.314478300635588E-02   6.393904658533808E-02   6.474328811744072E-02
   6.555766648416041E-02   6.638226327541477E-02   6.721724432695168E-02
   6.806273415807618E-02   6.891884492877684E-02   6.978573170987744E-02
   7.066352118238348E-02   7.155235488736050E-02   7.245236516933150E-02
   7.336369494360759E-02   7.428648384378179E-02   7.522089241573933E-02
   7.616703795484688E-02   7.712509857705040E-02   7.809520009390969E-02
   7.907750557648127E-02   8.007217202767679E-02   8.107934065582567E-02
   8.209919057712423E-02   8.313185169031008E-02   8.417751243592275E-02
   8.523632065302968E-02   8.630845617494999E-02   8.739406258780674E-02
   8.849333119653752E-02   8.960643290519218E-02   9.073352460523620E-02
   9.187479526306515E-02   9.303042499112962E-02   9.420058113980924E-02
   9.538546692810836E-02   9.658524980050884E-02   9.780012009355044E-02
   9.903028224708721E-02   1.002759021435880E-01   1.015372016965176E-01
   1.028143592124862E-01   1.041075827255032E-01   1.054170717951049E-01
   1.067430314153708E-01   1.080856656313251E-01   1.094451939386980E-01
   1.108218165916477E-01   1.122157598403182E-01   1.136272267035518E-01
   1.150564536563720E-01   1.165036562641637E-01   1.179690546489911E-01
   1.194528924669147E-01   1.209553903139286E-01   1.224767828354195E-01
   1.240173154211067E-01   1.255772228372749E-01   1.271567487237423E-01
   1.287561447840763E-01   1.303756487896175E-01   1.320155289433219E-01
   1.336760342821814E-01   1.353574197103791E-01   1.370599606883056E-01
   1.387839049820311E-01   1.405295389135846E-01   1.422971268394629E-01
   1.440869445384750E-01   1.458992747479572E-01   1.477343970628917E-01
   1.495926019275932E-01   1.514741791367822E-01   1.533794148387570E-01
   1.553086193107142E-01   1.572620825925372E-01   1.592401154291320E-01
   1.612430293291059E-01   1.632711305254810E-01   1.653247398520411E-01
   1.674041775462980E-01   1.695097640487750E-01   1.716418376835092E-01
   1.738007221072435E-01   1.759867580287147E-01   1.782002863448919E-01
   1.804416561339333E-01   1.827112114471448E-01   1.850093126700906E-01
   1.873363121516130E-01   1.896925787973658E-01   1.920784781583976E-01
   1.944943848916104E-01   1.969406708265418E-01   1.994177243716611E-01
   2.019259273727248E-01   2.044656715613528E-01   2.070373624652534E-01
   2.096413899069693E-01   2.122781640475744E-01   2.149481016807847E-01
   2.176516111898688E-01   2.203891203069335E-01   2.231610561813410E-01
   2.259678487466420E-01   2.288099386481381E-01   2.316877686183086E-01
   2.346017867406587E-01   2.375524532838625E-01   2.405402173601008E-01
   2.435655591728478E-01   2.466289393824019E-01   2.497308447966122E-01
   2.528717529265362E-01   2.560521569122009E-01   2.592725543110535E-01
   2.625334455319592E-01   2.658353383481881E-01   2.691787529497609E-01
   2.725642067027594E-01   2.759922272920017E-01   2.794633524684765E-01
   2.829781249746602E-01   2.865370868261724E-01   2.901408001163070E-01
   2.937898219218477E-01   2.974847253489841E-01   3.012260853651650E-01
   3.050144832826038E-01   3.088505155623502E-01   3.127347733053264E-01
   3.166678679473725E-01   3.206504116434807E-01   3.246830231028575E-01
   3.287663350765949E-01   3.329009791796997E-01   3.370876059431699E-01
   3.413268632822615E-01   3.456194147230238E-01   3.499659284841103E-01
   3.543670824140995E-01   3.588235628028759E-01   3.633360663260063E-01
   3.679052912134043E-01   3.725319533866457E-01   3.772167735736712E-01
   3.819604794637458E-01   3.867638151288256E-01   3.916275233166117E-01
   3.965523673460424E-01   4.015391075016135E-01   4.065885271543185E-01
   4.117014098175948E-01   4.168785527455489E-01   4.221207612523068E-01
   4.274288523425594E-01   4.328036525201498E-01   4.382459985984287E-01
   4.437567393511125E-01   4.493367291769562E-01   4.549868392088745E-01
   4.607079487970112E-01   4.665009477588354E-01   4.723667377783494E-01
   4.783062320365780E-01   4.843203522494683E-01   4.904100375388966E-01
   4.965762328148590E-01   5.028198985766223E-01   5.091420034030050E-01
   5.155435333963775E-01   5.220254802291359E-01   5.285888569084970E-01
   5.352346774009464E-01   5.419639783731935E-01   5.487778050238852E-01
   5.556772158383950E-01   5.626632814219225E-01   5.697370887982504E-01
   5.768997364715627E-01   5.841523342616111E-01   5.914960111055388E-01
   5.989319051334955E-01   6.064611715656503E-01   6.140849777196791E-01
   6.218045069053126E-01   6.296209574591093E-01   6.375355398000349E-01
   6.455494837328190E-01   6.536640303653225E-01   6.618804365672911E-01
   6.701999771702932E-01   6.786239416303723E-01   6.871536334345807E-01
   6.957903749283245E-01   7.045355027499500E-01   7.133903713519335E-01
   7.223563502737628E-01   7.314348279798483E-01   7.406272089586375E-01
   7.499349136451445E-01   7.593593831130189E-01   7.689020731481953E-01
   7.785644576171378E-01   7.883480323774805E-01   7.982543050384566E-01
   8.082848078825237E-01   8.184410875964553E-01   8.287247130885584E-01
   8.391372699832976E-01   8.496803639684190E-01   8.603556208884700E-01
   8.711646867093242E-01   8.821092256486601E-01   8.931909239144047E-01
   9.044114883663551E-01   9.157726441161445E-01   9.272761419895952E-01
   9.389237478307801E-01   9.507172550060758E-01   9.626584746037519E-01
   9.747492412445526E-01   9.869914103700190E-01   9.993868623549014E-01
   1.011937498339618E+00   1.024645242077414E+00   1.037512042102245E+00
   1.050539869166110E+00   1.063730718844254E+00   1.077086609493006E+00
   1.090609582692922E+00   1.104301708784553E+00   1.118165077487071E+00
   1.132201807890783E+00   1.146414040870636E+00   1.160803946157373E+00
   1.175373716465154E+00   1.190125572361956E+00   1.205061759424826E+00
   1.220184552275551E+00   1.235496248090321E+00   1.250999177146458E+00
   1.266695691137849E+00   1.282588174401977E+00   1.298679035845893E+00
   1.314970714508650E+00   1.331465677703296E+00   1.348166422163042E+00
   1.365075471510836E+00   1.382195381879997E+00   1.399528736804347E+00
   1.417078151074000E+00   1.434846269643325E+00   1.452835767108449E+00
   1.471049350631721E+00   1.489489756139558E+00   1.508159754313498E+00
   1.527062143824603E+00   1.546199758893921E+00   1.565575463069310E+00
   1.585192154398104E+00   1.605052764088465E+00   1.625160253427142E+00
   1.645517621806243E+00   1.666127898296965E+00   1.686994147967462E+00
   1.708119469909653E+00   1.729506997511383E+00   1.751159898856371E+00
   1.773081377538959E+00   1.795274671725115E+00   1.817743056023786E+00
   1.840489840237252E+00   1.863518370660770E+00   1.886832029494355E+00
   1.910434235390440E+00   1.934328445018657E+00   1.958518149980505E+00
   1.983006880815745E+00   2.007798204439718E+00   2.032895725477806E+00
   2.058303086789777E+00   2.084023968653867E+00   2.110062089568724E+00
   2.136421206017205E+00   2.163105112925088E+00   2.190117643968491E+00
   2.217462670323325E+00   2.245144102769708E+00   2.273165889943252E+00
   2.301532019263281E+00   2.330246516471993E+00   2.359313446508812E+00
   2.388736911551676E+00   2.418521053587781E+00   2.448670050826885E+00
   2.479188121673795E+00   2.510079520218931E+00   2.541348538923685E+00
   2.572999507601161E+00   2.605036791577508E+00   2.637464794122319E+00
   2.670287952242574E+00   2.703510739494865E+00   2.737137662957461E+00
   2.771173263673410E+00   2.805622115729949E+00   2.840488823641703E+00
   2.875778024445312E+00   2.911494383300764E+00   2.947642593987694E+00
   2.984227376995061E+00   3.021253477291719E+00   3.058725663935001E+00
   3.096648726480405E+00   3.135027473727257E+00   3.173866731024374E+00
   3.213171338097471E+00   3.252946145139660E+00   3.293196011020814E+00
   3.333925798440058E+00   3.375140371186217E+00   3.416844589165627E+00
   3.459043305373035E+00   3.501741358453981E+00   3.544943570192820E+00
   3.588654737277590E+00   3.632879626605497E+00   3.677622967371650E+00
   3.722889443951543E+00   3.768683687413423E+00   3.815010267325317E+00
   3.861873680874068E+00   3.909278343310347E+00   3.957228576641098E+00
   4.005728595889859E+00   4.054782497657027E+00   4.104394243711971E+00
   4.154567646903966E+00   4.205306352202173E+00   4.256613820135858E+00
   4.308493305211462E+00   4.360947835346249E+00   4.413980187641560E+00
   4.467592863862070E+00   4.521788062291511E+00   4.576567648955772E+00
   4.631933125154055E+00   4.687885593787208E+00   4.744425721463532E+00
   4.801553699101550E+00   4.859269199176035E+00   4.917571328807840E+00
   4.976458580069175E+00   5.035928777011606E+00   5.095979017365192E+00
   5.156605611122596E+00   5.217804013924316E+00   5.279568756721818E+00
   5.341893367594490E+00   5.404770292560778E+00   5.468190805672753E+00
   5.532144917340694E+00   5.596621273292582E+00   5.661607047337469E+00
   5.727087829802686E+00   5.793047502485483E+00   5.859468112767935E+00
   5.926329733489727E+00   5.993610317925912E+00   6.061285544526854E+00
   6.129328650971204E+00   6.197710261332569E+00   6.266398200167829E+00
   6.335357297675998E+00   6.404549184553725E+00   6.473932073569592E+00
   6.543460532900428E+00   6.613085245369895E+00   6.682752757123079E+00
   6.752405214764477E+00   6.821980090304459E+00   6.891409894242518E+00
   6.960621878329194E+00   7.029537724681204E+00   7.098073227987422E+00
   7.166137962380558E+00   7.233634943916019E+00   7.300460280891366E+00
   7.366502817434810E+00   7.431643773013565E+00   7.495756373290810E+00
   7.558705482984795E+00   7.620347233833789E+00   7.680528657382187E+00
   7.739087321244817E+00   7.795850973399991E+00   7.850637198195374E+00
   7.903253087806297E+00   7.953494933881165E+00   8.001147944422604E+00
   8.045985990910163E+00   8.087771392696663E+00   8.126254744291531E+00
   8.161174793036849E+00   8.192258376391843E+00   8.219220423562096E+00
   8.241764036007561E+00   8.259580650110982E+00   8.272350297659639E+00
   8.279741972020195E+00   8.281414110576408E+00   8.277015208182162E+00
   8.266184570707669E+00   8.248553221799492E+00   8.223744977672776E+00
   8.191377697819435E+00   8.151064730516666E+00   8.102416558608764E+00
   8.045042663289848E+00   7.978553613037130E+00   7.902563389808414E+00
   7.816691960803519E+00   7.720568103033226E+00   7.613832486313010E+00
   7.496141017919779E+00   7.367168448202335E+00   7.226612236028290E+00
   7.074196665367023E+00   6.909677204369588E+00   6.732845090319367E+00
   6.543532119583734E+00   6.341615618126648E+00   6.127023557131407E+00
   5.899739777908467E+00   5.659809275894467E+00   5.407343493205934E+00
   5.142525554694524E+00   4.865615378962882E+00   4.576954584818022E+00
   4.276971105567094E+00   3.966183416155669E+00   3.645204268346733E+00
   3.314743823098235E+00   2.975612061306251E+00   2.628720348616089E+00
   2.275082025373244E+00   1.915811889162984E+00   1.552124438442215E+00
   1.185330744063994E+00   8.168338236440338E-01   4.481223991268921E-01
   8.076293097424703E-02  -2.836101594917153E-01  -6.433061498701438E-01
  -9.965915946616057E-01  -1.341705829292890E+00  -1.676878360717965E+00
  -2.000348056322972E+00  -2.310383986737217E+00  -2.605307704048215E+00
  -2.883516666551360E+00  -3.143508430176486E+00  -3.383905131861111E+00
  -3.603477693475529E+00  -3.801169057795195E+00  -3.976115670483466E+00
  -4.127666306149773E+00  -4.255397242767688E+00  -4.359122712957051E+00
  -4.438899498740595E+00  -4.495024539115254E+00  -4.528024460030254E+00
  -4.538636064424182E+00  -4.527777056582043E+00  -4.496506617855518E+00
  -4.445975977242425E+00  -4.377369808267221E+00  -4.291840199351834E+00
  -4.190436110921912E+00  -4.074032644981922E+00  -3.943266179818234E+00
  -3.798483418294122E+00  -3.639714688003933E+00  -3.466684392809294E+00
  -3.278874274526569E+00  -3.075658083595505E+00  -2.856529247904747E+00
  -2.621446088903338E+00  -2.371321932498794E+00  -2.108689911318283E+00
  -1.838574198887300E+00  -1.568162128079796E+00  -1.301946017694521E+00
  -1.043509843827241E+00  -7.965392762474119E-01  -5.647586604858374E-01
  -3.521553583397227E-01  -1.603719661910196E-01  -1.356797192600186E-02
   3.241952697707267E-03   1.605194433698070E-03   1.788256964917340E-03
   1.781553289083991E-03   1.784073834010552E-03   1.775881427433986E-03
   1.758787703254615E-03   1.732495218175956E-03   1.696966291942462E-03
   1.652191649859725E-03   1.598216833910901E-03   1.535142762829706E-03
   1.463129059284982E-03   1.382396392138868E-03   1.293229268847980E-03
   1.195978041488078E-03   1.091060872502105E-03   9.789653145013254E-04
   8.602492532940638E-04   7.355416503781434E-04   6.055423941734564E-04
   4.710217353523182E-04   3.328189419076371E-04   1.918400835919668E-04
   4.905516876242410E-05  -9.450583035296570E-05  -2.377577912598518E-04
  -3.795662861308850E-04  -5.187545518410611E-04   0.000000000000000E+00
   0.000000000000000E+00   0.000000000000000E+00   0.000000000000000E+00
   0.000000000000000E+00   0.000000000000000E+00   0.000000000000000E+00
   0.000000000000000E+00   0.000000000000000E+00   0.000000000000000E+00
   0.000000000000000E+00   0.000000000000000E+00   0.000000000000000E+00
   0.000000000000000E+00   0.000000000000000E+00   0.000000000000000E+00
   0.000000000000000E+00   0.000000000000000E+00   0.000000000000000E+00
   0.000000000000000E+00   0.000000000000000E+00   0.000000000000000E+00
   0.000000000000000E+00   0.000000000000000E+00   0.000000000000000E+00
   0.000000000000000E+00   0.000000000000000E+00   0.000000000000000E+00
   0.000000000000000E+00   0.000000000000000E+00   0.000000000000000E+00
   0.000000000000000E+00   0.000000000000000E+00   0.000000000000000E+00
   0.000000000000000E+00   0.000000000000000E+00   0.000000000000000E+00
   0.000000000000000E+00   0.000000000000000E+00   0.000000000000000E+00
   0.000000000000000E+00   0.000000000000000E+00   0.000000000000000E+00
   0.000000000000000E+00   0.000000000000000E+00   0.000000000000000E+00
   0.000000000000000E+00   0.000000000000000E+00   0.000000000000000E+00
   0.000000000000000E+00   0.000000000000000E+00   0.000000000000000E+00
   0.000000000000000E+00   0.000000000000000E+00   0.000000000000000E+00
   0.000000000000000E+00   0.000000000000000E+00   0.000000000000000E+00
   0.000000000000000E+00   0.000000000000000E+00   0.000000000000000E+00
   0.000000000000000E+00   0.000000000000000E+00   0.000000000000000E+00
   0.000000000000000E+00   0.000000000000000E+00   0.000000000000000E+00
   0.000000000000000E+00   0.000000000000000E+00   0.000000000000000E+00
   0.000000000000000E+00   0.000000000000000E+00   0.000000000000000E+00
   0.000000000000000E+00   0.000000000000000E+00   0.000000000000000E+00
   0.000000000000000E+00   0.000000000000000E+00   0.000000000000000E+00
   0.000000000000000E+00   0.000000000000000E+00   0.000000000000000E+00
   0.000000000000000E+00   0.000000000000000E+00   0.000000000000000E+00
   0.000000000000000E+00   0.000000000000000E+00   0.000000000000000E+00
   0.000000000000000E+00   0.000000000000000E+00   0.000000000000000E+00
   0.000000000000000E+00   0.000000000000000E+00   0.000000000000000E+00
   0.000000000000000E+00   0.000000000000000E+00   0.000000000000000E+00
   0.000000000000000E+00   0.000000000000000E+00   0.000000000000000E+00
   0.000000000000000E+00   0.000000000000000E+00   0.000000000000000E+00
   0.000000000000000E+00   0.000000000000000E+00   0.000000000000000E+00
   0.000000000000000E+00   0.000000000000000E+00   0.000000000000000E+00
   0.000000000000000E+00   0.000000000000000E+00   0.000000000000000E+00
   0.000000000000000E+00   0.000000000000000E+00   0.000000000000000E+00
   0.000000000000000E+00   0.000000000000000E+00   0.000000000000000E+00
   0.000000000000000E+00   0.000000000000000E+00   0.000000000000000E+00
   0.000000000000000E+00   0.000000000000000E+00   0.000000000000000E+00
   0.000000000000000E+00   0.000000000000000E+00   0.000000000000000E+00
   0.000000000000000E+00   0.000000000000000E+00   0.000000000000000E+00
   0.000000000000000E+00   0.000000000000000E+00   0.000000000000000E+00
   0.000000000000000E+00   0.000000000000000E+00   0.000000000000000E+00
   0.000000000000000E+00   0.000000000000000E+00   0.000000000000000E+00
   0.000000000000000E+00   0.000000000000000E+00   0.000000000000000E+00
   0.000000000000000E+00   0.000000000000000E+00   0.000000000000000E+00
   0.000000000000000E+00   0.000000000000000E+00   0.000000000000000E+00
   0.000000000000000E+00   0.000000000000000E+00   0.000000000000000E+00
   0.000000000000000E+00   0.000000000000000E+00   0.000000000000000E+00
   0.000000000000000E+00   0.000000000000000E+00   0.000000000000000E+00
   0.000000000000000E+00   0.000000000000000E+00   0.000000000000000E+00
   0.000000000000000E+00   0.000000000000000E+00   0.000000000000000E+00
   0.000000000000000E+00   0.000000000000000E+00   0.000000000000000E+00
   0.000000000000000E+00   0.000000000000000E+00   0.000000000000000E+00
   0.000000000000000E+00   0.000000000000000E+00   0.000000000000000E+00
   0.000000000000000E+00   0.000000000000000E+00   0.000000000000000E+00
   0.000000000000000E+00   0.000000000000000E+00   0.000000000000000E+00
   0.000000000000000E+00   0.000000000000000E+00   0.000000000000000E+00
   0.000000000000000E+00   0.000000000000000E+00   0.000000000000000E+00
   0.000000000000000E+00   0.000000000000000E+00   0.000000000000000E+00
   0.000000000000000E+00   0.000000000000000E+00   0.000000000000000E+00
   0.000000000000000E+00   0.000000000000000E+00   0.000000000000000E+00
   0.000000000000000E+00   0.000000000000000E+00   0.000000000000000E+00
   0.000000000000000E+00   0.000000000000000E+00   0.000000000000000E+00
   0.000000000000000E+00   0.000000000000000E+00   0.000000000000000E+00
   0.000000000000000E+00   0.000000000000000E+00   0.000000000000000E+00
   0.000000000000000E+00   0.000000000000000E+00   0.000000000000000E+00
   0.000000000000000E+00   0.000000000000000E+00   0.000000000000000E+00
   0.000000000000000E+00   0.000000000000000E+00   0.000000000000000E+00
   0.000000000000000E+00   0.000000000000000E+00   0.000000000000000E+00
   0.000000000000000E+00   0.000000000000000E+00   0.000000000000000E+00
   0.000000000000000E+00   0.000000000000000E+00   0.000000000000000E+00
   0.000000000000000E+00   0.000000000000000E+00   0.000000000000000E+00
   0.000000000000000E+00   0.000000000000000E+00   0.000000000000000E+00
   0.000000000000000E+00   0.000000000000000E+00   0.000000000000000E+00
   0.000000000000000E+00   0.000000000000000E+00   0.000000000000000E+00
   0.000000000000000E+00   0.000000000000000E+00   0.000000000000000E+00
   0.000000000000000E+00   0.000000000000000E+00   0.000000000000000E+00
   0.000000000000000E+00   0.000000000000000E+00   0.000000000000000E+00
   0.000000000000000E+00   0.000000000000000E+00   0.000000000000000E+00
   0.000000000000000E+00   0.000000000000000E+00   0.000000000000000E+00
   0.000000000000000E+00   0.000000000000000E+00   0.000000000000000E+00
   0.000000000000000E+00   0.000000000000000E+00   0.000000000000000E+00
   0.000000000000000E+00   0.000000000000000E+00   0.000000000000000E+00
   0.000000000000000E+00   0.000000000000000E+00   0.000000000000000E+00
   0.000000000000000E+00   0.000000000000000E+00   0.000000000000000E+00
   0.000000000000000E+00   0.000000000000000E+00   0.000000000000000E+00
   0.000000000000000E+00   0.000000000000000E+00   0.000000000000000E+00
   0.000000000000000E+00   0.000000000000000E+00   0.000000000000000E+00
   0.000000000000000E+00   0.000000000000000E+00   0.000000000000000E+00
   0.000000000000000E+00   0.000000000000000E+00   0.000000000000000E+00
   0.000000000000000E+00
    </PP_BETA.2>
    <PP_BETA.3 index="3" label="3P" angular_momentum="1" cutoff_radius_index="835" cutoff_radius="2.0000000000000000" ultrasoft_cutoff_radius="2.1000000000000001">
   1.260685067761446E-07   1.292599461953210E-07   1.325321772868001E-07
   1.358872453014391E-07   1.393272472658656E-07   1.428543332931845E-07
   1.464707079268697E-07   1.501786315186753E-07   1.539804216414280E-07
   1.578784545375864E-07   1.618751666044688E-07   1.659730559170800E-07
   1.701746837894903E-07   1.744826763757390E-07   1.788997263112669E-07
   1.834285943958986E-07   1.880721113194338E-07   1.928331794309192E-07
   1.977147745527106E-07   2.027199478404595E-07   2.078518276901821E-07
   2.131136216936097E-07   2.185086186430363E-07   2.240401905869212E-07
   2.297117949375287E-07   2.355269766319205E-07   2.414893703476586E-07
   2.476027027745947E-07   2.538707949441722E-07   2.602975646176956E-07
   2.668870287350563E-07   2.736433059254508E-07   2.805706190816565E-07
   2.876732979994768E-07   2.949557820840038E-07   3.024226231243883E-07
   3.100784881388561E-07   3.179281622917449E-07   3.259765518843858E-07
   3.342286874217030E-07   3.426897267564371E-07   3.513649583129719E-07
   3.602598043927713E-07   3.693798245634898E-07   3.787307191338852E-07
   3.883183327166914E-07   3.981486578816916E-07   4.082278389012677E-07
   4.185621755907679E-07   4.291581272460951E-07   4.400223166809732E-07
   4.511615343664193E-07   4.625827426750069E-07   4.742930802325720E-07
   4.862998663800868E-07   4.986106057484781E-07   5.112329929492652E-07
   5.241749173839408E-07   5.374444681750966E-07   5.510499392223898E-07
   5.649998343864904E-07   5.793028728042713E-07   5.939679943385458E-07
   6.090043651657701E-07   6.244213835051980E-07   6.402286854930664E-07
   6.564361512054891E-07   6.730539108338225E-07   6.900923510163573E-07
   7.075621213303023E-07   7.254741409481063E-07   7.438396054622930E-07
   7.626699938830611E-07   7.819770758130329E-07   8.017729188036351E-07
   8.220698958976973E-07   8.428806933629993E-07   8.642183186215939E-07
   8.860961083798591E-07   9.085277369643657E-07   9.315272248687616E-07
   9.551089475170273E-07   9.792876442485749E-07   1.004078427530798E-06
   1.029496792404851E-06   1.055558626170529E-06   1.082280218316345E-06
   1.109678270700966E-06   1.137769907992406E-06   1.166572688371492E-06
   1.196104614506268E-06   1.226384144804238E-06   1.257430204949451E-06
   1.289262199731648E-06   1.321900025174875E-06   1.355364080973107E-06
   1.389675283240710E-06   1.424855077585665E-06   1.460925452513743E-06
   1.497908953172017E-06   1.535828695440275E-06   1.574708380379172E-06
   1.614572309044130E-06   1.655445397674261E-06   1.697353193265791E-06
   1.740321889539720E-06   1.784378343313720E-06   1.829550091288476E-06
   1.875865367258979E-06   1.923353119761522E-06   1.972043030167433E-06
   2.021965531234841E-06   2.073151826130093E-06   2.125633907930693E-06
   2.179444579621966E-06   2.234617474599921E-06   2.291187077693160E-06
   2.349188746716947E-06   2.408658734572925E-06   2.469634211908297E-06
   2.532153290348593E-06   2.596255046318610E-06   2.661979545466351E-06
   2.722472086833838E-06   2.791480768602212E-06   2.862342021610299E-06
   2.934905714418049E-06   3.009371334665418E-06   3.085797920997387E-06
   3.164061248199314E-06   3.244358631084634E-06   3.326657097472176E-06
   3.410954676155118E-06   3.497646357408749E-06   3.586320660912240E-06
   3.677214943203374E-06   3.770534872092725E-06   3.866070859097934E-06
   3.970446053402080E-06   4.070942655407275E-06   4.173903975230030E-06
   4.279701871272791E-06   4.387978343862560E-06   4.499160864033419E-06
   4.613093000691108E-06   4.729831688489128E-06   4.849730329363885E-06
   4.972288999273842E-06   5.098350798021747E-06   5.227396256876647E-06
   5.359632311523246E-06   5.495337805975596E-06   5.634571911783791E-06
   5.777162075336004E-06   5.923517232620674E-06   6.073470027310643E-06
   6.227272581643089E-06   6.384894836681467E-06   6.546585460383367E-06
   6.712323131912378E-06   6.882204344709281E-06   7.056588035718131E-06
   7.235184017096372E-06   7.418432723090005E-06   7.606021046007113E-06
   7.798781989697555E-06   7.996222108809883E-06   8.198614142202996E-06
   8.406183861588906E-06   8.619053968953540E-06   8.837353929337171E-06
   9.060881465935551E-06   9.290454164801128E-06   9.525598381905696E-06
   9.766740563686049E-06   1.001399669898703E-05   1.026760211263137E-05
   1.052745094765561E-05   1.079400450740297E-05   1.106731139289839E-05
   1.134750790026363E-05   1.163480049847819E-05   1.192930862576792E-05
   1.223135927494594E-05   1.254097556863230E-05   1.285853272567356E-05
   1.318394293358392E-05   1.351788746057910E-05   1.386012788607251E-05
   1.421091885749905E-05   1.457067825564306E-05   1.493959614889650E-05
   1.531787417698497E-05   1.570557601239967E-05   1.610320184376692E-05
   1.651092518212397E-05   1.692882668914820E-05   1.735743287987359E-05
   1.779695933893555E-05   1.824736515131669E-05   1.870937739669011E-05
   1.918305081628316E-05   1.966860804918987E-05   2.016659189680605E-05
   2.067714819191481E-05   2.120061793310637E-05   2.173739249945435E-05
   2.228755697944412E-05   2.285194331225826E-05   2.343038008837771E-05
   2.402350522993685E-05   2.463176578055965E-05   2.525520434922819E-05
   2.589462037979884E-05   2.655016528768676E-05   2.722232539020654E-05
   2.791141254313207E-05   2.861810118235953E-05   2.934252610945324E-05
   3.008545074707057E-05   3.084707592053966E-05   3.162788922907736E-05
   3.242867292755577E-05   3.324964646083954E-05   3.409133820619322E-05
   3.495437060145068E-05   3.583931518296083E-05   3.674655403562615E-05
   3.767695592553289E-05   3.863062736391871E-05   3.960860933599177E-05
   4.061137290460229E-05   4.163941674296537E-05   4.269355808572768E-05
   4.377437241402279E-05   4.488254547009964E-05   4.601872142017251E-05
   4.718366662171066E-05   4.837825008850740E-05   4.960290371416644E-05
   5.085868753290439E-05   5.214622410443115E-05   5.346625869211350E-05
   5.481980131469300E-05   5.620764065686327E-05   5.763060988243625E-05
   5.908940880329704E-05   6.058534912333508E-05   6.211900525720361E-05
   6.369162382733523E-05   6.530399219856008E-05   6.695719699645077E-05
   6.865223860486424E-05   7.039022696562903E-05   7.217220205749629E-05
   7.399915687809223E-05   7.587242346790136E-05   7.779319792824491E-05
   7.976262173096626E-05   8.178181498962988E-05   8.385215157711499E-05
   8.597492537993999E-05   8.815129462599438E-05   9.038296871686989E-05
   9.267105619139955E-05   9.501693621960684E-05   9.742234442599456E-05
   9.988865808188379E-05   1.024173154885943E-04   1.050100238215350E-04
   1.076683658495795E-04   1.103940105822069E-04   1.131886540606574E-04
   1.160540098318640E-04   1.189919561305239E-04   1.220042147035951E-04
   1.250927327866781E-04   1.282595261271981E-04   1.315064569383763E-04
   1.348354570626013E-04   1.382489001719709E-04   1.417485767829233E-04
   1.453370474754083E-04   1.490162620704299E-04   1.527885472682488E-04
   1.566564559830505E-04   1.606222011672667E-04   1.646884378596387E-04
   1.688574005036398E-04   1.731320697226512E-04   1.775149526425915E-04
   1.820085780989168E-04   1.866162334021982E-04   1.913404088334766E-04
   1.961841469472955E-04   2.011505001363220E-04   2.062426144708971E-04
   2.114636047468413E-04   2.168168912093637E-04   2.223056084981500E-04
   2.279331359483050E-04   2.337032581133143E-04   2.396194488482791E-04
   2.456853256278452E-04   2.519048884734786E-04   2.582816394769538E-04
   2.648201495498435E-04   2.715238969461935E-04   2.783975341873350E-04
   2.854450382595202E-04   2.926711457563426E-04   3.000798608776158E-04
   3.076764589495851E-04   3.154650288723502E-04   3.234509028861401E-04
   3.316391069693783E-04   3.400343281837222E-04   3.486422728172595E-04
   3.574679638757044E-04   3.665171486441485E-04   3.757954288379973E-04
   3.853083783264952E-04   3.950623800602291E-04   4.050631401736209E-04
   4.153172471766067E-04   4.258307136269656E-04   4.366104932665507E-04
   4.476629139330438E-04   4.589953130375567E-04   4.706145025924038E-04
   4.825278397949443E-04   4.947427898253948E-04   5.072668348405024E-04
   5.201079740032261E-04   5.332740870457472E-04   5.467736706821565E-04
   5.606148133725945E-04   5.748062749061281E-04   5.893571256259852E-04
   6.042761531928956E-04   6.195730058746718E-04   6.352569278385645E-04
   6.513379090803857E-04   6.678259969981025E-04   6.847313937071190E-04
   7.020647454513375E-04   7.198367815379411E-04   7.380587675042335E-04
   7.567419451166737E-04   7.758980356444469E-04   7.955389686019507E-04
   8.156772002508887E-04   8.363251342232406E-04   8.574956888894234E-04
   8.792021334939754E-04   9.014581248753080E-04   9.242772456361029E-04
   9.476741577395030E-04   9.716631377489498E-04   9.962594125510740E-04
   1.021478310161515E-03   1.047335475177893E-03   1.073847260223683E-03
   1.101029836607513E-03   1.128900694814080E-03   1.157476894103522E-03
   1.186776550532395E-03   1.216817587995961E-03   1.247619134154801E-03
   1.279200225651054E-03   1.311580793405111E-03   1.344780845231133E-03
   1.378821239347783E-03   1.413723209963236E-03   1.449508658863748E-03
   1.486199751746747E-03   1.523819654736852E-03   1.562391492273790E-03
   1.601939827770927E-03   1.642488904106710E-03   1.684064552212627E-03
   1.726692158472324E-03   1.770398880766503E-03   1.815211812876377E-03
   1.861158721229654E-03   1.908268751948059E-03   1.956570814513407E-03
   2.006095599302907E-03   2.056873698702120E-03   2.108936862109189E-03
   2.162317831562204E-03   2.217049598145474E-03   2.273166619268374E-03
   2.330703874340592E-03   2.389697150452941E-03   2.450183536878733E-03
   2.512200485607804E-03   2.575787184487723E-03   2.640982783467192E-03
   2.707828399111632E-03   2.776365706495998E-03   2.846637311357488E-03
   2.918687319916576E-03   2.992560576702105E-03   3.068303257521408E-03
   3.145962569963117E-03   3.225587105814573E-03   3.307226626639359E-03
   3.390931733370033E-03   3.476755250495615E-03   3.564750399741723E-03
   3.654972323439045E-03   3.747476422801144E-03   3.842321739996657E-03
   3.939566095483194E-03   4.039274043984056E-03   4.141500502684225E-03
   4.246316850407409E-03   4.353783288332369E-03   4.463968517154713E-03
   4.576943978766194E-03   4.692776032488151E-03   4.811536991822664E-03
   4.933306746369300E-03   5.058154172565893E-03   5.186160273829536E-03
   5.317406019543204E-03   5.451971309805964E-03   5.589940739899142E-03
   5.731398439752422E-03   5.876441206416422E-03   6.025145596061337E-03
   6.177613870027472E-03   6.333941682766249E-03   6.494219578437198E-03
   6.658556913940523E-03   6.827044243151956E-03   6.999798873398891E-03
   7.176920500006630E-03   7.358522807823007E-03   7.544715075714468E-03
   7.735622686690537E-03   7.931353287911844E-03   8.132033472447031E-03
   8.337793989347237E-03   8.548750926614666E-03   8.765047811407614E-03
   8.986813643962567E-03   9.214184946743465E-03   9.447308665270366E-03
   9.686316400546836E-03   9.931393698826899E-03   1.018262288550980E-02
   1.044024925025264E-02   1.070438643768334E-02   1.097513800547907E-02
   1.125282743906979E-02   1.153746887249167E-02   1.182932060356206E-02
   1.212857659685356E-02   1.243535528390216E-02   1.274992256957679E-02
   1.307242062279784E-02   1.340308407563772E-02   1.374208966614488E-02
   1.408966507274269E-02   1.444603887471286E-02   1.481138625136523E-02
   1.518600335613277E-02   1.557006565061810E-02   1.596382750637882E-02
   1.636754157704123E-02   1.678147426185904E-02   1.720582118786462E-02
   1.764092519485705E-02   1.808701401401771E-02   1.854434741915855E-02
   1.901325476941789E-02   1.949398990993403E-02   1.998687979574835E-02
   2.049219882449320E-02   2.101029267918923E-02   2.154145012793945E-02
   2.208603051563968E-02   2.264436179625273E-02   2.321677442945465E-02
   2.380365081976347E-02   2.440531463549118E-02   2.502219422257329E-02
   2.565461344664174E-02   2.630301563604722E-02   2.696775012292933E-02
   2.764928099365776E-02   2.834799234410247E-02   2.906432751611100E-02
   2.979873199893840E-02   3.055166176584866E-02   3.132357936373123E-02
   3.211495042905090E-02   3.292628653402151E-02   3.375806909969656E-02
   3.461082760066009E-02   3.548506145369257E-02   3.638135017026995E-02
   3.730020611677076E-02   3.824222233193798E-02   3.920797299552745E-02
   4.019804393826461E-02   4.121305611151461E-02   4.225362673479414E-02
   4.332040395057468E-02   4.441403022076895E-02   4.553519646848717E-02
   4.668457674484797E-02   4.786288148270142E-02   4.907083518072125E-02
   5.030919189776746E-02   5.157866058505041E-02   5.288010501674643E-02
   5.421424407232663E-02   5.558193411780375E-02   5.698399947116913E-02
   5.842130587096153E-02   5.989473907857676E-02   6.140517295213253E-02
   6.295354766937951E-02   6.454082429848944E-02   6.616793236676173E-02
   6.783589772244493E-02   6.954572803124820E-02   7.129844012742562E-02
   7.309515478684976E-02   7.493689963654712E-02   7.682484173087920E-02
   7.876011407935513E-02   8.074387083030246E-02   8.277734611517193E-02
   8.486175663991297E-02   8.699835661700611E-02   8.918845078534918E-02
   9.143335979855899E-02   9.373443349103533E-02   9.609307321026561E-02
   9.851067558123897E-02   1.009887222100084E-01   1.035286909675817E-01
   1.061321075554485E-01   1.088005481129639E-01   1.115355813457947E-01
   1.143388822345301E-01   1.172121068145279E-01   1.201569740176452E-01
   1.231752596375573E-01   1.262687213153104E-01   1.294392562989187E-01
   1.326887017931843E-01   1.360190196829112E-01   1.394321716837169E-01
   1.429301748823247E-01   1.465151088414234E-01   1.501890939890429E-01
   1.539542768412202E-01   1.578128994954919E-01   1.617672033225520E-01
   1.658195410007002E-01   1.699722587939675E-01   1.742278008541970E-01
   1.785886499211178E-01   1.830573397331680E-01   1.876364839250786E-01
   1.923287291853451E-01   1.971367995938302E-01   2.020634790827667E-01
   2.071116000723878E-01   2.122840855688177E-01   2.175838916557745E-01
   2.230140649797323E-01   2.285777162338979E-01   2.342780072721634E-01
   2.401181914490341E-01   2.461015804467790E-01   2.522315704134344E-01
   2.585116074874724E-01   2.649452438611046E-01   2.715360819667398E-01
   2.782878179576893E-01   2.852042146934951E-01   2.922891268788379E-01
   2.995464801055052E-01   3.069802834641995E-01   3.145946438040791E-01
   3.223937262239331E-01   3.303818084718936E-01   3.385632365667544E-01
   3.469424559666381E-01   3.555239946095550E-01   3.643124746086409E-01
   3.733126093708007E-01   3.825291982972278E-01   3.919671496447520E-01
   4.016314463410476E-01   4.115271808489139E-01   4.216595370631970E-01
   4.320337932735639E-01   4.426553325075058E-01   4.535296247624601E-01
   4.646622533961038E-01   4.760588847551936E-01   4.877252993951681E-01
   4.996673676936082E-01   5.118910659785930E-01   5.244024668733162E-01
   5.372077478876138E-01   5.503131794266786E-01   5.637251393629205E-01
   5.774500993000229E-01   5.914946327177040E-01   6.058654064700129E-01
   6.205691910506224E-01   6.356128456532260E-01   6.510033272812050E-01
   6.667476874475153E-01   6.828530615201194E-01   6.993266835485927E-01
   7.161758630761885E-01   7.334080023532450E-01   7.510305785601965E-01
   7.690511482428461E-01   7.874773449332682E-01   8.063168618841736E-01
   8.255774728257759E-01   8.452669969039985E-01   8.653933191521541E-01
   8.859643690721912E-01   9.069881208520685E-01   9.284725859018321E-01
   9.504258054402992E-01   9.728558395860492E-01   9.957707658884931E-01
   1.019178662322871E+00   1.043087602406417E+00   1.067505645684261E+00
   1.092440820200899E+00   1.117901119232090E+00   1.143894478774314E+00
   1.170428774060207E+00   1.197511795425854E+00   1.225151239624006E+00
   1.253354688383651E+00   1.282129595664839E+00   1.311483260465541E+00
   1.341422819119160E+00   1.371955210664132E+00   1.403087164610742E+00
   1.434825169729491E+00   1.467175454761949E+00   1.500143956263401E+00
   1.533736292051023E+00   1.567957733655137E+00   1.602813168961279E+00
   1.638307074694695E+00   1.674443474359164E+00   1.711225908060255E+00
   1.748657385971180E+00   1.786740351596980E+00   1.825476635951045E+00
   1.864867410630355E+00   1.904913142907805E+00   1.945613538770671E+00
   1.986967496123309E+00   2.028973043194439E+00   2.071627282056186E+00
   2.114926328352364E+00   2.158865241550953E+00   2.203437963963308E+00
   2.248637244276072E+00   2.294454566997613E+00   2.340880073117352E+00
   2.387902481464443E+00   2.435509003329798E+00   2.483685254835454E+00
   2.532415167719017E+00   2.581680892042156E+00   2.631462700264390E+00
   2.681738884294451E+00   2.732485649453825E+00   2.783677005808997E+00
   2.835284655467445E+00   2.887277874688854E+00   2.939623394122115E+00
   2.992285276776570E+00   3.045224786603773E+00   3.098400262377820E+00
   3.151766981536567E+00   3.205277023081667E+00   3.258879130489287E+00
   3.312518566671131E+00   3.366136973424751E+00   3.419672222394858E+00
   3.473058270445615E+00   3.526225010300921E+00   3.579098123103797E+00
   3.631598930179775E+00   3.683644246569569E+00   3.735146235993692E+00
   3.786012268200587E+00   3.836144781635474E+00   3.885441148945397E+00
   3.933793549668321E+00   3.981088849633737E+00   4.027208490284654E+00
   4.072028386592377E+00   4.115418838322380E+00   4.157244455554359E+00
   4.197364098333697E+00   4.235630836962272E+00   4.271891930751121E+00
   4.305988830630259E+00   4.337757208059399E+00   4.367027011717125E+00
   4.393622556443308E+00   4.417362646685021E+00   4.438060739752617E+00
   4.455525148592878E+00   4.469559294647473E+00   4.479962005244747E+00
   4.486527871310793E+00   4.489047656307161E+00   4.487308775646573E+00
   4.481095837262924E+00   4.470191256171550E+00   4.454375948040209E+00
   4.433430098883298E+00   4.407134024904488E+00   4.375269120284042E+00
   4.337618899156844E+00   4.293970137310973E+00   4.244114114317815E+00
   4.187847961725737E+00   4.124976119359323E+00   4.055311899631288E+00
   3.978679165482754E+00   3.894914116518724E+00   3.803867188547816E+00
   3.705405057935071E+00   3.599412752379031E+00   3.485795861157097E+00
   3.364482834517940E+00   3.235427368970601E+00   3.098610862052503E+00
   2.954044921396200E+00   2.801773919130312E+00   2.641877559917116E+00
   2.474473449399063E+00   2.299719630207676E+00   2.117817056500527E+00
   1.929011974394466E+00   1.733598164795300E+00   1.531919011292430E+00
   1.324369341534606E+00   1.111396989806710E+00   8.935040302769970E-01
   6.712476099590639E-01   4.452403273979897E-01   2.161500808989096E-01
  -1.530068453306654E-02  -2.483364028354735E-01  -4.821305685608905E-01
  -7.158087451978794E-01  -9.484524871478754E-01  -1.179104240520982E+00
  -1.406773306090198E+00  -1.630442925077480E+00  -1.849078544991063E+00
  -2.061637319148760E+00  -2.267078862245748E+00  -2.464377281994773E+00
  -2.652534470197827E+00  -2.830594609610310E+00  -2.997659823433064E+00
  -3.152906837333981E+00  -3.295604485946454E+00  -3.425131828195575E+00
  -3.540996562368909E+00  -3.642853366103714E+00  -3.730521677837212E+00
  -3.804002353054774E+00  -3.863492510471961E+00  -3.909397764105086E+00
  -3.942340929089022E+00  -3.963166145918226E+00  -3.972937269861514E+00
  -3.972929257402020E+00  -3.964611197260160E+00  -3.949619614053320E+00
  -3.929720656735809E+00  -3.906759914018582E+00  -3.882598783444628E+00
  -3.859036670978923E+00  -3.837718842734444E+00  -3.820030481928127E+00
  -3.806978561918632E+00  -3.799064498118502E+00  -3.796152298756168E+00
  -3.797339159372402E+00  -3.800838145833700E+00  -3.803885924758298E+00
  -3.802692403191742E+00  -3.792453720274613E+00  -3.767455335101300E+00
  -3.721297951868289E+00  -3.647285813880863E+00  -3.539024424895950E+00
  -3.391283079825161E+00  -3.201186718707973E+00  -2.969811527863307E+00
  -2.704269418049821E+00  -2.416604233013006E+00  -2.111081570423017E+00
  -1.789286264125469E+00  -1.452906603470650E+00  -1.103656869883993E+00
  -7.439375877898521E-01  -3.703225329298996E-01  -3.671702681654889E-02
   5.884565758214009E-03   1.717937981177585E-03   2.178689912493545E-03
   2.170804237729217E-03   2.199100536542383E-03   2.213142541451052E-03
   2.217582862785370E-03   2.211655221809891E-03   2.195177641474352E-03
   2.167962196448724E-03   2.129877805807664E-03   2.080848564705360E-03
   2.020859074955114E-03   1.949957667738480E-03   1.868261281833157E-03
   1.775958880520655E-03   1.673315357796096E-03   1.560675141218188E-03
   1.438464857769441E-03   1.307196550673787E-03   1.167469448356812E-03
   1.019971623895715E-03   8.654810742312910E-04   7.048655157461017E-04
   5.390819627796491E-04   3.691747620498917E-04   1.962728342196999E-04
   2.158603241715854E-05  -1.536003338178097E-04   0.000000000000000E+00
   0.000000000000000E+00   0.000000000000000E+00   0.000000000000000E+00
   0.000000000000000E+00   0.000000000000000E+00   0.000000000000000E+00
   0.000000000000000E+00   0.000000000000000E+00   0.000000000000000E+00
   0.000000000000000E+00   0.000000000000000E+00   0.000000000000000E+00
   0.000000000000000E+00   0.000000000000000E+00   0.000000000000000E+00
   0.000000000000000E+00   0.000000000000000E+00   0.000000000000000E+00
   0.000000000000000E+00   0.000000000000000E+00   0.000000000000000E+00
   0.000000000000000E+00   0.000000000000000E+00   0.000000000000000E+00
   0.000000000000000E+00   0.000000000000000E+00   0.000000000000000E+00
   0.000000000000000E+00   0.000000000000000E+00   0.000000000000000E+00
   0.000000000000000E+00   0.000000000000000E+00   0.000000000000000E+00
   0.000000000000000E+00   0.000000000000000E+00   0.000000000000000E+00
   0.000000000000000E+00   0.000000000000000E+00   0.000000000000000E+00
   0.000000000000000E+00   0.000000000000000E+00   0.000000000000000E+00
   0.000000000000000E+00   0.000000000000000E+00   0.000000000000000E+00
   0.000000000000000E+00   0.000000000000000E+00   0.000000000000000E+00
   0.000000000000000E+00   0.000000000000000E+00   0.000000000000000E+00
   0.000000000000000E+00   0.000000000000000E+00   0.000000000000000E+00
   0.000000000000000E+00   0.000000000000000E+00   0.000000000000000E+00
   0.000000000000000E+00   0.000000000000000E+00   0.000000000000000E+00
   0.000000000000000E+00   0.000000000000000E+00   0.000000000000000E+00
   0.000000000000000E+00   0.000000000000000E+00   0.000000000000000E+00
   0.000000000000000E+00   0.000000000000000E+00   0.000000000000000E+00
   0.000000000000000E+00   0.000000000000000E+00   0.000000000000000E+00
   0.000000000000000E+00   0.000000000000000E+00   0.000000000000000E+00
   0.000000000000000E+00   0.000000000000000E+00   0.000000000000000E+00
   0.000000000000000E+00   0.000000000000000E+00   0.000000000000000E+00
   0.000000000000000E+00   0.000000000000000E+00   0.000000000000000E+00
   0.000000000000000E+00   0.000000000000000E+00   0.000000000000000E+00
   0.000000000000000E+00   0.000000000000000E+00   0.000000000000000E+00
   0.000000000000000E+00   0.000000000000000E+00   0.000000000000000E+00
   0.000000000000000E+00   0.000000000000000E+00   0.000000000000000E+00
   0.000000000000000E+00   0.000000000000000E+00   0.000000000000000E+00
   0.000000000000000E+00   0.000000000000000E+00   0.000000000000000E+00
   0.000000000000000E+00   0.000000000000000E+00   0.000000000000000E+00
   0.000000000000000E+00   0.000000000000000E+00   0.000000000000000E+00
   0.000000000000000E+00   0.000000000000000E+00   0.000000000000000E+00
   0.000000000000000E+00   0.000000000000000E+00   0.000000000000000E+00
   0.000000000000000E+00   0.000000000000000E+00   0.000000000000000E+00
   0.000000000000000E+00   0.000000000000000E+00   0.000000000000000E+00
   0.000000000000000E+00   0.000000000000000E+00   0.000000000000000E+00
   0.000000000000000E+00   0.000000000000000E+00   0.000000000000000E+00
   0.000000000000000E+00   0.000000000000000E+00   0.000000000000000E+00
   0.000000000000000E+00   0.000000000000000E+00   0.000000000000000E+00
   0.000000000000000E+00   0.000000000000000E+00   0.000000000000000E+00
   0.000000000000000E+00   0.000000000000000E+00   0.000000000000000E+00
   0.000000000000000E+00   0.000000000000000E+00   0.000000000000000E+00
   0.000000000000000E+00   0.000000000000000E+00   0.000000000000000E+00
   0.000000000000000E+00   0.000000000000000E+00   0.000000000000000E+00
   0.000000000000000E+00   0.000000000000000E+00   0.000000000000000E+00
   0.000000000000000E+00   0.000000000000000E+00   0.000000000000000E+00
   0.000000000000000E+00   0.000000000000000E+00   0.000000000000000E+00
   0.000000000000000E+00   0.000000000000000E+00   0.000000000000000E+00
   0.000000000000000E+00   0.000000000000000E+00   0.000000000000000E+00
   0.000000000000000E+00   0.000000000000000E+00   0.000000000000000E+00
   0.000000000000000E+00   0.000000000000000E+00   0.000000000000000E+00
   0.000000000000000E+00   0.000000000000000E+00   0.000000000000000E+00
   0.000000000000000E+00   0.000000000000000E+00   0.000000000000000E+00
   0.000000000000000E+00   0.000000000000000E+00   0.000000000000000E+00
   0.000000000000000E+00   0.000000000000000E+00   0.000000000000000E+00
   0.000000000000000E+00   0.000000000000000E+00   0.000000000000000E+00
   0.000000000000000E+00   0.000000000000000E+00   0.000000000000000E+00
   0.000000000000000E+00   0.000000000000000E+00   0.000000000000000E+00
   0.000000000000000E+00   0.000000000000000E+00   0.000000000000000E+00
   0.000000000000000E+00   0.000000000000000E+00   0.000000000000000E+00
   0.000000000000000E+00   0.000000000000000E+00   0.000000000000000E+00
   0.000000000000000E+00   0.000000000000000E+00   0.000000000000000E+00
   0.000000000000000E+00   0.000000000000000E+00   0.000000000000000E+00
   0.000000000000000E+00   0.000000000000000E+00   0.000000000000000E+00
   0.000000000000000E+00   0.000000000000000E+00   0.000000000000000E+00
   0.000000000000000E+00   0.000000000000000E+00   0.000000000000000E+00
   0.000000000000000E+00   0.000000000000000E+00   0.000000000000000E+00
   0.000000000000000E+00   0.000000000000000E+00   0.000000000000000E+00
   0.000000000000000E+00   0.000000000000000E+00   0.000000000000000E+00
   0.000000000000000E+00   0.000000000000000E+00   0.000000000000000E+00
   0.000000000000000E+00   0.000000000000000E+00   0.000000000000000E+00
   0.000000000000000E+00   0.000000000000000E+00   0.000000000000000E+00
   0.000000000000000E+00   0.000000000000000E+00   0.000000000000000E+00
   0.000000000000000E+00   0.000000000000000E+00   0.000000000000000E+00
   0.000000000000000E+00   0.000000000000000E+00   0.000000000000000E+00
   0.000000000000000E+00   0.000000000000000E+00   0.000000000000000E+00
   0.000000000000000E+00   0.000000000000000E+00   0.000000000000000E+00
   0.000000000000000E+00   0.000000000000000E+00   0.000000000000000E+00
   0.000000000000000E+00   0.000000000000000E+00   0.000000000000000E+00
   0.000000000000000E+00   0.000000000000000E+00   0.000000000000000E+00
   0.000000000000000E+00   0.000000000000000E+00   0.000000000000000E+00
   0.000000000000000E+00   0.000000000000000E+00   0.000000000000000E+00
   0.000000000000000E+00   0.000000000000000E+00   0.000000000000000E+00
   0.000000000000000E+00   0.000000000000000E+00   0.000000000000000E+00
   0.000000000000000E+00   0.000000000000000E+00   0.000000000000000E+00
   0.000000000000000E+00   0.000000000000000E+00   0.000000000000000E+00
   0.000000000000000E+00   0.000000000000000E+00   0.000000000000000E+00
   0.000000000000000E+00   0.000000000000000E+00   0.000000000000000E+00
   0.000000000000000E+00
    </PP_BETA.3>
    <PP_BETA.4 index="4" label="3P" angular_momentum="1" cutoff_radius_index="835" cutoff_radius="1.3999999999999999" ultrasoft_cutoff_radius="2.1000000000000001">
  -9.457192283389318E-08  -9.696602244522409E-08  -9.942072897607460E-08
  -1.019375766978812E-07  -1.045181387223459E-07  -1.071640279846802E-07
  -1.098768982517435E-07  -1.126584451557000E-07  -1.155104072538446E-07
  -1.184345671152573E-07  -1.214327524349667E-07  -1.245068371763189E-07
  -1.276587427422648E-07  -1.308904391763000E-07  -1.342039463938063E-07
  -1.376013354445626E-07  -1.410847298072200E-07  -1.446563067165439E-07
  -1.483182985242561E-07  -1.520729940943286E-07  -1.559227402335956E-07
  -1.598699431585855E-07  -1.639170699994831E-07  -1.680666503421669E-07
  -1.723212778092825E-07  -1.766836116813388E-07  -1.811563785588470E-07
  -1.857423740665325E-07  -1.904444646006916E-07  -1.952655891207826E-07
  -2.002087609863695E-07  -2.052770698405699E-07  -2.104736835411821E-07
  -2.158018501406982E-07  -2.212648999164436E-07  -2.268662474521059E-07
  -2.326093937719618E-07  -2.384979285291302E-07  -2.445355322492205E-07
  -2.507259786307830E-07  -2.570731369039891E-07  -2.635809742490270E-07
  -2.702535582757178E-07  -2.770950595659019E-07  -2.841097542801902E-07
  -2.913020268306988E-07  -2.986763726214507E-07  -3.062374008581485E-07
  -3.139898374290755E-07  -3.219385278589305E-07  -3.300884403374351E-07
  -3.384446688246137E-07  -3.470124362346826E-07  -3.557970977005394E-07
  -3.648041439208963E-07  -3.740392045921405E-07  -3.835080519270770E-07
  -3.932166042627490E-07  -4.031709297595873E-07  -4.133772501942089E-07
  -4.238419448482240E-07  -4.345715544954954E-07  -4.455727854903306E-07
  -4.568525139591707E-07  -4.684177900983911E-07  -4.802758425808985E-07
  -4.924340830742856E-07  -5.049001108733615E-07  -5.176817176499536E-07
  -5.307868923229568E-07  -5.442238260516590E-07  -5.580009173554824E-07
  -5.721267773633253E-07  -5.866102351957946E-07  -6.014603434836926E-07
  -6.166863840261956E-07  -6.322978735922780E-07  -6.483045698689999E-07
  -6.647164775603699E-07  -6.815438546406116E-07  -6.987972187657168E-07
  -7.164873538473236E-07  -7.346253167930035E-07  -7.532224444171799E-07
  -7.722903605270041E-07  -7.918409831875995E-07  -8.118865321712367E-07
  -8.324395365950794E-07  -8.535128427522783E-07  -8.751196221413229E-07
  -8.972733796986370E-07  -9.199879622395960E-07  -9.432775671132304E-07
  -9.671567510760150E-07  -9.916404393903117E-07  -1.016743935153120E-06
  -1.042482928861009E-06  -1.068873508217166E-06  -1.095932168186726E-06
  -1.123675821306649E-06  -1.152121808256582E-06  -1.181287908697335E-06
  -1.211192352383735E-06  -1.241853830558788E-06  -1.273291507636312E-06
  -1.305525033179276E-06  -1.338574554181413E-06  -1.372460727659715E-06
  -1.407204733565723E-06  -1.442828288023661E-06  -1.479353656903687E-06
  -1.516803669738768E-06  -1.555201733993848E-06  -1.594571849696240E-06
  -1.634938624436411E-06  -1.676327288748468E-06  -1.718763711880047E-06
  -1.762274417961387E-06  -1.806886602583740E-06  -1.852628149797465E-06
  -1.899527649540412E-06  -1.947614415507528E-06  -1.996918503472816E-06
  -2.043971601056862E-06  -2.095760135431661E-06  -2.148913291553256E-06
  -2.203365636219127E-06  -2.259229415673414E-06  -2.316545887043299E-06
  -2.375263599836360E-06  -2.435494556032929E-06  -2.497234203689876E-06
  -2.560494030018070E-06  -2.625487268683446E-06  -2.692018249758746E-06
  -2.760220875208992E-06  -2.830213307917218E-06  -2.901903346457504E-06
  -2.977737703501674E-06  -3.053122687521932E-06  -3.130405832975192E-06
  -3.209724025251599E-06  -3.290971113171046E-06  -3.374367716393982E-06
  -3.459825479019499E-06  -3.547414339543149E-06  -3.637320956110237E-06
  -3.729312428518630E-06  -3.823858114098288E-06  -3.920657912551240E-06
  -4.019893799801557E-06  -4.121694715646421E-06  -4.226104841981823E-06
  -4.333113568398806E-06  -4.442869328469858E-06  -4.555361558340111E-06
  -4.670730417042924E-06  -4.788980870410263E-06  -4.910285722863879E-06
  -5.034589437577413E-06  -5.162063061819689E-06  -5.292839858986335E-06
  -5.426816087804120E-06  -5.564298968095301E-06  -5.705051169556550E-06
  -5.849621440004901E-06  -5.997722533529232E-06  -6.149565628527622E-06
  -6.305300659609524E-06  -6.464934269433865E-06  -6.628700665224304E-06
  -6.796436494331612E-06  -6.968590724512641E-06  -7.145044878452324E-06
  -7.325888596060317E-06  -7.511418772896118E-06  -7.701624799141122E-06
  -7.896577561790112E-06  -8.096554182599960E-06  -8.301531632278819E-06
  -8.511747984751528E-06  -8.727257589669180E-06  -8.948186556941658E-06
  -9.174793852744771E-06  -9.407026793061076E-06  -9.645263965786969E-06
  -9.889393942023011E-06  -1.013985180002380E-05  -1.039661812682927E-05
  -1.065975407930429E-05  -1.092966518237480E-05  -1.120639384434675E-05
  -1.149013587043727E-05  -1.178103054283688E-05  -1.207927280301601E-05
  -1.238514992181596E-05  -1.269866501183341E-05  -1.302015770310243E-05
  -1.334988587598494E-05  -1.368775689487771E-05  -1.403437024334042E-05
  -1.438967121551230E-05  -1.475393583651058E-05  -1.512752438504958E-05
  -1.551048144349678E-05  -1.590320088619446E-05  -1.630583564129073E-05
  -1.671858679190558E-05  -1.714194526910373E-05  -1.757585093349944E-05
  -1.802083649222169E-05  -1.847709806937655E-05  -1.894480913808721E-05
  -1.942449019541551E-05  -1.991621515292020E-05  -2.042046497417172E-05
  -2.093741289053687E-05  -2.146750057547495E-05  -2.201098897349868E-05
  -2.256824569902708E-05  -2.313961533156432E-05  -2.372537646779335E-05
  -2.432605106648347E-05  -2.494194858505554E-05  -2.557331640323674E-05
  -2.622077640095866E-05  -2.688459897760325E-05  -2.756518809037094E-05
  -2.826312435890261E-05  -2.897853973269514E-05  -2.971221189534878E-05
  -3.046442829426631E-05  -3.123562145612242E-05  -3.202643825062899E-05
  -3.283717921487803E-05  -3.366852327927758E-05  -3.452084059435788E-05
  -3.539475088034970E-05  -3.629088518301468E-05  -3.720955447260354E-05
  -3.815161028248441E-05  -3.911745448647140E-05  -4.010771855837156E-05
  -4.112309360523933E-05  -4.216418142078525E-05  -4.323163693470998E-05
  -4.432601648476518E-05  -4.544819098900568E-05  -4.659871799066100E-05
  -4.777840967802678E-05  -4.898796920080545E-05  -5.022813379891836E-05
  -5.149968901907438E-05  -5.280346921058987E-05  -5.414023116528705E-05
  -5.551078308919811E-05  -5.691604666292623E-05  -5.835693738605529E-05
  -5.983431992974919E-05  -6.134904141018652E-05  -6.290213858482557E-05
  -6.449455198939565E-05  -6.612722242547723E-05  -6.780131971079908E-05
  -6.951774943401287E-05  -7.127758897159983E-05  -7.308202329535545E-05
  -7.493215217872480E-05  -7.682908619154651E-05  -7.877403440514871E-05
  -8.076825447333845E-05  -8.281292171643009E-05  -8.490936868118947E-05
  -8.705888397107627E-05  -8.926280067287406E-05  -9.152252223196356E-05
  -9.383942985159337E-05  -9.621502399268293E-05  -9.865077497343327E-05
  -1.011480842839626E-04  -1.037087273859922E-04  -1.063340998711498E-04
  -1.090260153652536E-04  -1.117860484317417E-04  -1.146158994363052E-04
  -1.175174753609649E-04  -1.204924429049202E-04  -1.235427667258198E-04
  -1.266702377258078E-04  -1.298769236527453E-04  -1.331648233007916E-04
  -1.365358326696703E-04  -1.399923159322199E-04  -1.435362506260754E-04
  -1.471698644156615E-04  -1.508954852840584E-04  -1.547154235277379E-04
  -1.586320470728313E-04  -1.626478949306924E-04  -1.667653372785314E-04
  -1.709869761930207E-04  -1.753155311252026E-04  -1.797536611131381E-04
  -1.843041218294934E-04  -1.889698094414721E-04  -1.937535246012034E-04
  -1.986584630445998E-04  -2.036874421407581E-04  -2.088438310468425E-04
  -2.141306597665273E-04  -2.195514492253515E-04  -2.251093092074693E-04
  -2.308079942836102E-04  -2.366508183251182E-04  -2.426415866199688E-04
  -2.487841190146514E-04  -2.550820056434076E-04  -2.615394068636457E-04
  -2.681602272570057E-04  -2.749486657141004E-04  -2.819089695829291E-04
  -2.890453710441804E-04  -2.963625432153066E-04  -3.038648501703690E-04
  -3.115572114384993E-04  -3.194441484657096E-04  -3.275308412662559E-04
  -3.358221324117247E-04  -3.443233948923208E-04  -3.530398454562025E-04
  -3.619769244154205E-04  -3.711402907504566E-04  -3.805355351184005E-04
  -3.901686556676193E-04  -4.000456147765144E-04  -4.101726553252509E-04
  -4.205559918350772E-04  -4.312021352143732E-04  -4.421178446044765E-04
  -4.533098398041312E-04  -4.647851874318457E-04  -4.765509640535216E-04
  -4.886146017068927E-04  -5.009836165302666E-04  -5.136657656250653E-04
  -5.266688961454609E-04  -5.400011842257431E-04  -5.536709955649970E-04
  -5.676867907773066E-04  -5.820574126206337E-04  -5.967917426423551E-04
  -6.118991132480248E-04  -6.273888885994208E-04  -6.432707448381383E-04
  -6.595546432768916E-04  -6.762507551980630E-04  -6.933694188457767E-04
  -7.109214808493393E-04  -7.289177644978464E-04  -7.473696588597796E-04
  -7.662886176607066E-04  -7.856864261865706E-04  -8.055753288821260E-04
  -8.259675300925301E-04  -8.468760537200974E-04  -8.683137438170617E-04
  -8.902941666901949E-04  -9.128308439620172E-04  -9.359380350681031E-04
  -9.596301278297532E-04  -9.839219401783083E-04  -1.008828593263719E-03
  -1.034365696488373E-03  -1.060549180645613E-03  -1.087395498675478E-03
  -1.114921260777272E-03  -1.143143819032551E-03  -1.172080638530993E-03
  -1.201749989239381E-03  -1.232170252212426E-03  -1.263360583652274E-03
  -1.295340251559593E-03  -1.328129480124453E-03  -1.361748630738342E-03
  -1.396218619132578E-03  -1.431561222545649E-03  -1.467798205262742E-03
  -1.504952509656097E-03  -1.543047156287824E-03  -1.582105972346484E-03
  -1.622153485593761E-03  -1.663214489583683E-03  -1.705314823406222E-03
  -1.748480732314829E-03  -1.792739078004514E-03  -1.838117713092912E-03
  -1.884644733199629E-03  -1.932349459622666E-03  -1.981261455498724E-03
  -2.031411392578443E-03  -2.082830641902705E-03  -2.135551183793577E-03
  -2.189606053785503E-03  -2.245028968063415E-03  -2.301854540132020E-03
  -2.360118274432822E-03  -2.419856531650848E-03  -2.481106690317726E-03
  -2.543906833106262E-03  -2.608296410717282E-03  -2.674315531000717E-03
  -2.742005461571662E-03  -2.811408041700301E-03  -2.882567251561394E-03
  -2.955526828185242E-03  -3.030334300764138E-03  -3.107032654567980E-03
  -3.185673637106567E-03  -3.266303671507372E-03  -3.348973959646205E-03
  -3.433737478993264E-03  -3.520645031770761E-03  -3.609750871812115E-03
  -3.701113612961361E-03  -3.794786635002429E-03  -3.890830048272867E-03
  -3.989304305633084E-03  -4.090269900265355E-03  -4.193790192629881E-03
  -4.299928784053136E-03  -4.408756306978256E-03  -4.520333581813692E-03
  -4.634735083185825E-03  -4.752032493498566E-03  -4.872295477777679E-03
  -4.995603892652501E-03  -5.122028580661614E-03  -5.251654669754943E-03
  -5.384558979253719E-03  -5.520826034195424E-03  -5.660539044140926E-03
  -5.803789369130659E-03  -5.950661354759213E-03  -6.101248696268403E-03
  -6.255647408291768E-03  -6.413949227128483E-03  -6.576257367110143E-03
  -6.742671155221125E-03  -6.913293178488164E-03  -7.088232856774819E-03
  -7.267591546228249E-03  -7.451500754781462E-03  -7.640038504833061E-03
  -7.833368138280616E-03  -8.031586056228567E-03  -8.234784809025203E-03
  -8.443170299161695E-03  -8.656790861010257E-03  -8.875821586404049E-03
  -9.100405195027358E-03  -9.330646524337400E-03  -9.566727935844933E-03
  -9.808768645697786E-03  -1.005693728868165E-02  -1.031137335383911E-02
  -1.057224397742566E-02  -1.083971788324683E-02  -1.111393817899328E-02
  -1.139511090740358E-02  -1.168338110749282E-02  -1.197893730481366E-02
  -1.228196655751209E-02  -1.259266621640145E-02  -1.291119788761126E-02
  -1.323779975727805E-02  -1.357265438470738E-02  -1.391596046267747E-02
  -1.426795525698744E-02  -1.462883813542384E-02  -1.499884867169940E-02
  -1.537820087521396E-02  -1.576714654179921E-02  -1.616591129144792E-02
  -1.657475817521204E-02  -1.699393620452521E-02  -1.742369809242732E-02
  -1.786432447285484E-02  -1.831606953781942E-02  -1.877924124877887E-02
  -1.925409832255592E-02  -1.974096146963240E-02  -2.024010684931529E-02
  -2.075187061980255E-02  -2.127655165755794E-02  -2.181448095691244E-02
  -2.236599351512935E-02  -2.293143230577051E-02  -2.351114679858059E-02
  -2.410549028663906E-02  -2.471484307291445E-02  -2.533957242118325E-02
  -2.598007397262602E-02  -2.663673047316832E-02  -2.730996918349962E-02
  -2.800018638185068E-02  -2.870782275727256E-02  -2.943331308567334E-02
  -3.017710133929267E-02  -3.093965364619209E-02  -3.172143724757739E-02
  -3.252293979664438E-02  -3.334464922375897E-02  -3.418708307970913E-02
  -3.505075353812470E-02  -3.593619679362158E-02  -3.684395894900708E-02
  -3.777460564265426E-02  -3.872869176428259E-02  -3.970683696221478E-02
  -4.070961537379103E-02  -4.173765904660819E-02  -4.279159690538046E-02
  -4.387208057486473E-02  -4.497977652012991E-02  -4.611535887620618E-02
  -4.727952926502371E-02  -4.847301188403781E-02  -4.969652387732604E-02
  -5.095083095594635E-02  -5.223669781903940E-02  -5.355490596216752E-02
  -5.490628388742589E-02  -5.629163512672263E-02  -5.771182714233612E-02
  -5.916772445620191E-02  -6.066020963738599E-02  -6.219021020335136E-02
  -6.375865196435312E-02  -6.536649453751550E-02  -6.701472143431830E-02
  -6.870433946616045E-02  -7.043637580219980E-02  -7.221189247108256E-02
  -7.403196079984616E-02  -7.589769927896058E-02  -7.781023702529380E-02
  -7.977073794603967E-02  -8.178039733686293E-02  -8.384042269735033E-02
  -8.595207854301080E-02  -8.811663629705246E-02  -9.033540703076355E-02
  -9.260974030107254E-02  -9.494099601503647E-02  -9.733060263128211E-02
  -9.977998369889805E-02  -1.022906293011620E-01  -1.048640454772923E-01
  -1.075017804100556E-01  -1.102054230770679E-01  -1.129765989707004E-01
  -1.158169630050889E-01  -1.187282267711698E-01  -1.217121236788869E-01
  -1.247704489789187E-01  -1.279050196162474E-01  -1.311177111909813E-01
  -1.344104366112353E-01  -1.377851529050649E-01  -1.412438706947811E-01
  -1.447886382326557E-01  -1.484215585524863E-01  -1.521447825793440E-01
  -1.559605074660731E-01  -1.598709900359297E-01  -1.638785291462441E-01
  -1.679854850129639E-01  -1.721942716229478E-01  -1.765073522162077E-01
  -1.809272546366392E-01  -1.854565600069907E-01  -1.900979129235773E-01
  -1.948540097478209E-01  -1.997276199768293E-01  -2.047215652052811E-01
  -2.098387384716957E-01  -2.150820925451724E-01  -2.204546508348927E-01
  -2.259595012378213E-01  -2.315998006421371E-01  -2.373787810113718E-01
  -2.432997362042963E-01  -2.493660425614094E-01  -2.555811433000503E-01
  -2.619485610621265E-01  -2.684718924047843E-01  -2.751548130198557E-01
  -2.820010775872863E-01  -2.890145186366045E-01  -2.961990562148994E-01
  -3.035586856793462E-01  -3.110974918158624E-01  -3.188196431345922E-01
  -3.267293937329945E-01  -3.348310882104278E-01  -3.431291558151680E-01
  -3.516281216340877E-01  -3.603325957759956E-01  -3.692472861575853E-01
  -3.783769907194094E-01  -3.877266036581651E-01  -3.973011135741667E-01
  -4.071056071909857E-01  -4.171452659174021E-01  -4.274253723491049E-01
  -4.379513060452938E-01  -4.487285474016727E-01  -4.597626756986182E-01
  -4.710593735407013E-01  -4.826244222645806E-01  -4.944637065017504E-01
  -5.065832133646294E-01  -5.189890297648956E-01  -5.316873483376816E-01
  -5.446844599979510E-01  -5.579867608192233E-01  -5.716007462366937E-01
  -5.855330133619960E-01  -5.997902608487229E-01  -6.143792826876606E-01
  -6.293069770745630E-01  -6.445803330598929E-01  -6.602064392692909E-01
  -6.761924758727826E-01  -6.925457149126717E-01  -7.092735179420476E-01
  -7.263833329395064E-01  -7.438826908259448E-01  -7.617792039860555E-01
  -7.800805603866521E-01  -7.987945210798854E-01  -8.179289160233538E-01
  -8.374916371358598E-01  -8.574906362805602E-01  -8.779339154062330E-01
  -8.988295249291626E-01  -9.201855524337413E-01  -9.420101187347059E-01
  -9.643113674183299E-01  -9.870974583963268E-01  -1.010376555560808E+00
  -1.034156820982465E+00  -1.058446399653018E+00  -1.083253411279170E+00
  -1.108585935501623E+00  -1.134452000856601E+00  -1.160859568122118E+00
  -1.187816516653886E+00  -1.215330628127202E+00  -1.243409567816872E+00
  -1.272060868166044E+00  -1.301291906443534E+00  -1.331109886781349E+00
  -1.361521815132945E+00  -1.392534477191668E+00  -1.424154412986003E+00
  -1.456387889291546E+00  -1.489240873156522E+00  -1.522718999460794E+00
  -1.556827541644780E+00  -1.591571376551217E+00  -1.626954949231878E+00
  -1.662982236725099E+00  -1.699656706188413E+00  -1.736981275830758E+00
  -1.774958269178414E+00  -1.813589369505203E+00  -1.852875571171400E+00
  -1.892817128401323E+00  -1.933413501601899E+00  -1.974663300735017E+00
  -2.016564226564313E+00  -2.059113008129038E+00  -2.102305338238868E+00
  -2.146135805332323E+00  -2.190597822537884E+00  -2.235683553247938E+00
  -2.281383834568749E+00  -2.327688095649852E+00  -2.374584274336519E+00
  -2.422058730624060E+00  -2.470096154190677E+00  -2.518679472489229E+00
  -2.567789752165113E+00  -2.617406098357040E+00  -2.667505551658766E+00
  -2.718062979366760E+00  -2.769050966751168E+00  -2.820439702045688E+00
  -2.872196861028740E+00  -2.924287487671099E+00  -2.976673872278896E+00
  -3.029315427896099E+00  -3.082168564369731E+00  -3.135186560659601E+00
  -3.188319436351376E+00  -3.241513822086862E+00  -3.294712829972315E+00
  -3.347855923993132E+00  -3.400878791556736E+00  -3.453713217402617E+00
  -3.506286958693609E+00  -3.558523625121941E+00  -3.610342562469116E+00
  -3.661658741957803E+00  -3.712382657060143E+00  -3.762420227399493E+00
  -3.811672713127550E+00  -3.860036640149553E+00  -3.907403738287135E+00
  -3.953660894358889E+00  -3.998690121418775E+00  -4.042368548067666E+00
  -4.084568427107950E+00  -4.125157170093704E+00  -4.163997405570034E+00
  -4.200947068412501E+00  -4.235859518697580E+00  -4.268583697595631E+00
  -4.298964319102593E+00  -4.326842103613828E+00  -4.352054056517824E+00
  -4.374433793176776E+00  -4.393811916289658E+00  -4.410016447637211E+00
  -4.422873317942798E+00  -4.432206918566937E+00  -4.437840718408101E+00
  -4.439597948771665E+00  -4.437302360169872E+00  -4.430779052580148E+00
  -4.419855383059448E+00  -4.404361951492120E+00  -4.384133667311887E+00
  -4.359010896578584E+00  -4.328840691334342E+00  -4.293478099981125E+00
  -4.252787556421511E+00  -4.206644347261311E+00  -4.154936152003113E+00
  -4.097564650355805E+00  -4.034447193405445E+00  -3.965518526030446E+00
  -3.890732554053504E+00  -3.810064142308709E+00  -3.723510929908882E+00
  -3.631095146914733E+00  -3.532865412426714E+00  -3.428898494155638E+00
  -3.319301004829551E+00  -3.204211008037012E+00  -3.083799506663947E+00
  -2.958271777766978E+00  -2.827868523088489E+00  -2.692866794849291E+00
  -2.553580657245329E+00  -2.410361542506590E+00  -2.263598255028752E+00
  -2.113716580167107E+00  -1.961178447358966E+00  -1.806480604553413E+00
  -1.650152752664163E+00  -1.492755097130178E+00  -1.334875273953026E+00
  -1.177124608857799E+00  -1.020133679707818E+00  -8.645471537957992E-01
  -7.110178855874283E-01  -5.602002724371529E-01  -4.127428777831943E-01
  -2.692803560096060E-01  -1.304247294102305E-01   3.243902226343742E-03
   1.311871066386257E-01   2.529181759582952E-01   3.680123035985652E-01
   4.761166509953272E-01   5.769600186506301E-01   6.703617801976782E-01
   7.562396850466198E-01   8.346160654869756E-01   9.056219327950028E-01
   9.694983849256744E-01   1.026594698726390E+00   1.077362453827887E+00
   1.122345009693071E+00   1.162161690366450E+00   1.197486085845902E+00
   1.229018000966553E+00   1.257448786346691E+00   1.283420066400561E+00
   1.307476299353045E+00   1.330012148061461E+00   1.351216358212743E+00
   1.371014759490456E+00   1.389016127374733E+00   1.404466031263385E+00
   1.416215433685524E+00   1.422712734136497E+00   1.422030184193373E+00
   1.411938119584547E+00   1.390043296994548E+00   1.354010748009902E+00
   1.301891982061645E+00   1.232586068211243E+00   1.146464061603421E+00
   1.046191396586955E+00   9.363713556099096E-01   8.187877944360338E-01
   6.942503868352301E-01   5.636250671448522E-01   4.278013524855981E-01
   2.879439912259762E-01   1.429767983622632E-01   1.394626965871272E-02
  -2.498454551403038E-03  -8.984567300175356E-04  -1.082658678749023E-03
  -1.084913262796998E-03  -1.099939438498779E-03  -1.108236224982188E-03
  -1.111560785168387E-03  -1.109584414200051E-03  -1.102209159567465E-03
  -1.089340619830640E-03  -1.070912697508255E-03  -1.046887465229861E-03
  -1.017257743045614E-03  -9.820488410840775E-04  -9.413209291984050E-04
  -8.951708335016191E-04  -8.437339715019690E-04  -7.871861701732497E-04
  -7.257450472679858E-04  -6.596715781130080E-04  -5.892710249246724E-04
  -5.148937661231486E-04  -4.369358101931297E-04  -3.558387235057517E-04
  -2.720893696083580E-04  -1.862189374875968E-04  -9.880154074718869E-05
  -1.045232450894866E-05   7.817526145972995E-05   0.000000000000000E+00
   0.000000000000000E+00   0.000000000000000E+00   0.000000000000000E+00
   0.000000000000000E+00   0.000000000000000E+00   0.000000000000000E+00
   0.000000000000000E+00   0.000000000000000E+00   0.000000000000000E+00
   0.000000000000000E+00   0.000000000000000E+00   0.000000000000000E+00
   0.000000000000000E+00   0.000000000000000E+00   0.000000000000000E+00
   0.000000000000000E+00   0.000000000000000E+00   0.000000000000000E+00
   0.000000000000000E+00   0.000000000000000E+00   0.000000000000000E+00
   0.000000000000000E+00   0.000000000000000E+00   0.000000000000000E+00
   0.000000000000000E+00   0.000000000000000E+00   0.000000000000000E+00
   0.000000000000000E+00   0.000000000000000E+00   0.000000000000000E+00
   0.000000000000000E+00   0.000000000000000E+00   0.000000000000000E+00
   0.000000000000000E+00   0.000000000000000E+00   0.000000000000000E+00
   0.000000000000000E+00   0.000000000000000E+00   0.000000000000000E+00
   0.000000000000000E+00   0.000000000000000E+00   0.000000000000000E+00
   0.000000000000000E+00   0.000000000000000E+00   0.000000000000000E+00
   0.000000000000000E+00   0.000000000000000E+00   0.000000000000000E+00
   0.000000000000000E+00   0.000000000000000E+00   0.000000000000000E+00
   0.000000000000000E+00   0.000000000000000E+00   0.000000000000000E+00
   0.000000000000000E+00   0.000000000000000E+00   0.000000000000000E+00
   0.000000000000000E+00   0.000000000000000E+00   0.000000000000000E+00
   0.000000000000000E+00   0.000000000000000E+00   0.000000000000000E+00
   0.000000000000000E+00   0.000000000000000E+00   0.000000000000000E+00
   0.000000000000000E+00   0.000000000000000E+00   0.000000000000000E+00
   0.000000000000000E+00   0.000000000000000E+00   0.000000000000000E+00
   0.000000000000000E+00   0.000000000000000E+00   0.000000000000000E+00
   0.000000000000000E+00   0.000000000000000E+00   0.000000000000000E+00
   0.000000000000000E+00   0.000000000000000E+00   0.000000000000000E+00
   0.000000000000000E+00   0.000000000000000E+00   0.000000000000000E+00
   0.000000000000000E+00   0.000000000000000E+00   0.000000000000000E+00
   0.000000000000000E+00   0.000000000000000E+00   0.000000000000000E+00
   0.000000000000000E+00   0.000000000000000E+00   0.000000000000000E+00
   0.000000000000000E+00   0.000000000000000E+00   0.000000000000000E+00
   0.000000000000000E+00   0.000000000000000E+00   0.000000000000000E+00
   0.000000000000000E+00   0.000000000000000E+00   0.000000000000000E+00
   0.000000000000000E+00   0.000000000000000E+00   0.000000000000000E+00
   0.000000000000000E+00   0.000000000000000E+00   0.000000000000000E+00
   0.000000000000000E+00   0.000000000000000E+00   0.000000000000000E+00
   0.000000000000000E+00   0.000000000000000E+00   0.000000000000000E+00
   0.000000000000000E+00   0.000000000000000E+00   0.000000000000000E+00
   0.000000000000000E+00   0.000000000000000E+00   0.000000000000000E+00
   0.000000000000000E+00   0.000000000000000E+00   0.000000000000000E+00
   0.000000000000000E+00   0.000000000000000E+00   0.000000000000000E+00
   0.000000000000000E+00   0.000000000000000E+00   0.000000000000000E+00
   0.000000000000000E+00   0.000000000000000E+00   0.000000000000000E+00
   0.000000000000000E+00   0.000000000000000E+00   0.000000000000000E+00
   0.000000000000000E+00   0.000000000000000E+00   0.000000000000000E+00
   0.000000000000000E+00   0.000000000000000E+00   0.000000000000000E+00
   0.000000000000000E+00   0.000000000000000E+00   0.000000000000000E+00
   0.000000000000000E+00   0.000000000000000E+00   0.000000000000000E+00
   0.000000000000000E+00   0.000000000000000E+00   0.000000000000000E+00
   0.000000000000000E+00   0.000000000000000E+00   0.000000000000000E+00
   0.000000000000000E+00   0.000000000000000E+00   0.000000000000000E+00
   0.000000000000000E+00   0.000000000000000E+00   0.000000000000000E+00
   0.000000000000000E+00   0.000000000000000E+00   0.000000000000000E+00
   0.000000000000000E+00   0.000000000000000E+00   0.000000000000000E+00
   0.000000000000000E+00   0.000000000000000E+00   0.000000000000000E+00
   0.000000000000000E+00   0.000000000000000E+00   0.000000000000000E+00
   0.000000000000000E+00   0.000000000000000E+00   0.000000000000000E+00
   0.000000000000000E+00   0.000000000000000E+00   0.000000000000000E+00
   0.000000000000000E+00   0.000000000000000E+00   0.000000000000000E+00
   0.000000000000000E+00   0.000000000000000E+00   0.000000000000000E+00
   0.000000000000000E+00   0.000000000000000E+00   0.000000000000000E+00
   0.000000000000000E+00   0.000000000000000E+00   0.000000000000000E+00
   0.000000000000000E+00   0.000000000000000E+00   0.000000000000000E+00
   0.000000000000000E+00   0.000000000000000E+00   0.000000000000000E+00
   0.000000000000000E+00   0.000000000000000E+00   0.000000000000000E+00
   0.000000000000000E+00   0.000000000000000E+00   0.000000000000000E+00
   0.000000000000000E+00   0.000000000000000E+00   0.000000000000000E+00
   0.000000000000000E+00   0.000000000000000E+00   0.000000000000000E+00
   0.000000000000000E+00   0.000000000000000E+00   0.000000000000000E+00
   0.000000000000000E+00   0.000000000000000E+00   0.000000000000000E+00
   0.000000000000000E+00   0.000000000000000E+00   0.000000000000000E+00
   0.000000000000000E+00   0.000000000000000E+00   0.000000000000000E+00
   0.000000000000000E+00   0.000000000000000E+00   0.000000000000000E+00
   0.000000000000000E+00   0.000000000000000E+00   0.000000000000000E+00
   0.000000000000000E+00   0.000000000000000E+00   0.000000000000000E+00
   0.000000000000000E+00   0.000000000000000E+00   0.000000000000000E+00
   0.000000000000000E+00   0.000000000000000E+00   0.000000000000000E+00
   0.000000000000000E+00   0.000000000000000E+00   0.000000000000000E+00
   0.000000000000000E+00   0.000000000000000E+00   0.000000000000000E+00
   0.000000000000000E+00   0.000000000000000E+00   0.000000000000000E+00
   0.000000000000000E+00   0.000000000000000E+00   0.000000000000000E+00
   0.000000000000000E+00   0.000000000000000E+00   0.000000000000000E+00
   0.000000000000000E+00   0.000000000000000E+00   0.000000000000000E+00
   0.000000000000000E+00   0.000000000000000E+00   0.000000000000000E+00
   0.000000000000000E+00   0.000000000000000E+00   0.000000000000000E+00
   0.000000000000000E+00   0.000000000000000E+00   0.000000000000000E+00
   0.000000000000000E+00   0.000000000000000E+00   0.000000000000000E+00
   0.000000000000000E+00   0.000000000000000E+00   0.000000000000000E+00
   0.000000000000000E+00   0.000000000000000E+00   0.000000000000000E+00
   0.000000000000000E+00   0.000000000000000E+00   0.000000000000000E+00
   0.000000000000000E+00   0.000000000000000E+00   0.000000000000000E+00
   0.000000000000000E+00   0.000000000000000E+00   0.000000000000000E+00
   0.000000000000000E+00
    </PP_BETA.4>
    <PP_DIJ columns="4" rows="4">
  0.50071410026850560       0.40223333315389570        0.0000000000000000        0.0000000000000000       0.40223333315389570        1.5227559039510907        0.0000000000000000        0.0000000000000000        0.0000000000000000        0.0000000000000000       0.19241215689859403       0.20166902378115342        0.0000000000000000        0.0000000000000000       0.20166902378115342      -0.16100765253642502     
    </PP_DIJ>
    <PP_AUGMENTATION q_with_l="true" nqf="0" nqlc="5">
      <PP_Q size="16">
  -7.5329823886464198E-002  -1.8018446903962333E-002   0.0000000000000000        0.0000000000000000       -1.8018446903962333E-002   5.1581560155962436E-002   0.0000000000000000        0.0000000000000000        0.0000000000000000        0.0000000000000000       -6.6181897114369363E-003  -1.4969372451992034E-002   0.0000000000000000        0.0000000000000000       -1.4969372451992034E-002  -2.8854165047522431E-002
      </PP_Q>
      <PP_QIJL.1.1.0 first_index="1" second_index="1" composite_index="1" angular_momentum="0" size="1135">
   1.555521166531322E-10   1.594899369199674E-10   1.635274435653579E-10
   1.676671601611666E-10   1.719116741637389E-10   1.762636385311455E-10
   1.807257733813631E-10   1.853008676924340E-10   1.899917810456637E-10
   1.948014454129495E-10   1.997328669893527E-10   2.047891280720656E-10
   2.099733889869413E-10   2.152888900637970E-10   2.207389536617204E-10
   2.263269862456455E-10   2.320564805155006E-10   2.379310175892517E-10
   2.439542692412123E-10   2.501300001970175E-10   2.564620704866889E-10
   2.629544378572758E-10   2.696111602465660E-10   2.764363983194225E-10
   2.834344180683271E-10   2.906095934797520E-10   2.979664092680384E-10
   3.055094636784772E-10   3.132434713613527E-10   3.211732663187428E-10
   3.293038049259136E-10   3.376401690292062E-10   3.461875691223419E-10
   3.549513476031380E-10   3.639369821126684E-10   3.731500889589497E-10
   3.825964266273041E-10   3.922818993795825E-10   4.022125609445046E-10
   4.123946183014212E-10   4.228344355598537E-10   4.335385379372562E-10
   4.445136158374646E-10   4.557665290323974E-10   4.673043109496143E-10
   4.791341730684111E-10   4.912635094272055E-10   5.036999012450270E-10
   5.164511216599933E-10   5.295251405877521E-10   5.429301297029051E-10
   5.566744675465324E-10   5.707667447630301E-10   5.852157694694972E-10
   6.000305727610674E-10   6.152204143555915E-10   6.307947883812250E-10
   6.467634293105219E-10   6.631363180447506E-10   6.799236881522423E-10
   6.971360322646408E-10   7.147841086350951E-10   7.328789478624616E-10
   7.514318597857248E-10   7.704544405529585E-10   7.899585798692284E-10
   8.099564684279744E-10   8.304606055305282E-10   8.514838068984940E-10
   8.730392126839303E-10   8.951402956822764E-10   9.178008697532055E-10
   9.410350984546463E-10   9.648575038953667E-10   9.892829758116737E-10
   1.014326780873863E-09   1.040004572228284E-09   1.066332399280936E-09
   1.093326717728767E-09   1.121004399844865E-09   1.149382745024060E-09
   1.178479490595450E-09   1.208312822908674E-09   1.238901388700799E-09
   1.270264306750981E-09   1.302421179830147E-09   1.335392106953171E-09
   1.369197695941234E-09   1.403859076302164E-09   1.439397912436865E-09
   1.475836417180038E-09   1.513197365683693E-09   1.551504109652110E-09
   1.590780591937147E-09   1.631051361503047E-09   1.672341588770021E-09
   1.714677081346298E-09   1.758084300158388E-09   1.802590375989693E-09
   1.848223126437779E-09   1.895011073300895E-09   1.942983460404652E-09
   1.992170271879932E-09   2.042602250903543E-09   2.094310918913235E-09
   2.147328595309148E-09   2.201688417653979E-09   2.257424362384526E-09
   2.314571266047517E-09   2.373164847072982E-09   2.433241728098832E-09
   2.494839458860553E-09   2.557996539660345E-09   2.622752445430346E-09
   2.689147650405003E-09   2.757223653417980E-09   2.827023003839495E-09
   2.898589328170150E-09   2.971967357308024E-09   3.047202954505967E-09
   3.124343144036628E-09   3.203436140583091E-09   3.284531379373483E-09
   3.367679547078461E-09   3.452932613490776E-09   3.540343864006810E-09
   3.629967932930268E-09   3.721860837619033E-09   3.816080013496264E-09
   3.912684349947892E-09   4.011734227128673E-09   4.113291553700026E-09
   4.217419805523109E-09   4.324184065331405E-09   4.433651063407463E-09
   4.545889219289376E-09   4.660968684532998E-09   4.778961386556515E-09
   4.899941073595035E-09   5.023983360792953E-09   5.151165777463147E-09
   5.281567815542457E-09   5.415270979273659E-09   5.552358836145127E-09
   5.692917069119837E-09   5.837033530186511E-09   5.984798295266251E-09
   6.136303720509019E-09   6.291644500015139E-09   6.450917725017933E-09
   6.614222944564281E-09   6.781662227731351E-09   6.953340227418045E-09
   7.129364245751172E-09   7.309844301147355E-09   7.494893197072179E-09
   7.684626592539985E-09   7.879163074398083E-09   8.078624231440637E-09
   8.283134730398567E-09   8.492822393852706E-09   8.707818280119410E-09
   8.928256765157867E-09   9.154275626550879E-09   9.386016129611215E-09
   9.623623115667302E-09   9.867245092583904E-09   1.011703432757364E-08
   1.037314694235781E-08   1.063574301073599E-08   1.090498665862483E-08
   1.118104616662936E-08   1.146409407521017E-08   1.175430729251245E-08
   1.205186720492447E-08   1.235695979043391E-08   1.266977573485392E-08
   1.299051055099010E-08   1.331936470082427E-08   1.365654372079039E-08
   1.400225835022108E-08   1.435672466304547E-08   1.472016420281980E-08
   1.509280412117586E-08   1.547487731977355E-08   1.586662259584551E-08
   1.626828479142625E-08   1.668011494635726E-08   1.710237045516499E-08
   1.753531522790898E-08   1.797921985510054E-08   1.843436177679595E-08
   1.890102545596803E-08   1.937950255626610E-08   1.987009212427465E-08
   2.037310077638370E-08   2.088884289038935E-08   2.141764080194244E-08
   2.195982500596884E-08   2.251573436318743E-08   2.308571631185329E-08
   2.367012708486064E-08   2.426933193233859E-08   2.488370534988037E-08
   2.551363131254805E-08   2.615950351479829E-08   2.682172561648024E-08
   2.750071149505725E-08   2.819688550421186E-08   2.891068273899422E-08
   2.964254930767921E-08   3.039294261050366E-08   3.116233162545552E-08
   3.195119720129467E-08   3.276003235798837E-08   3.358934259474742E-08
   3.443964620585750E-08   3.531147460450041E-08   3.620537265476923E-08
   3.712189901208354E-08   3.806162647221689E-08   3.902514232915580E-08
   4.001304874201141E-08   4.102596311121456E-08   4.206451846422818E-08
   4.312936385101700E-08   4.422116474952317E-08   4.534060348139849E-08
   4.648837963825413E-08   4.766521051869290E-08   4.887183157639701E-08
   5.010899687955094E-08   5.137747958188529E-08   5.267807240563546E-08
   5.401158813671785E-08   5.537886013242873E-08   5.678074284198757E-08
   5.821811234024356E-08   5.969186687488267E-08   6.120292742747439E-08
   6.275223828870646E-08   6.434076764817048E-08   6.596950819905996E-08
   6.763947775816331E-08   6.935171990153439E-08   7.110730461623819E-08
   7.290732896857755E-08   7.475291778921686E-08   7.664522437562952E-08
   7.858543121230835E-08   8.057475070918330E-08   8.261442595871248E-08
   8.470573151211135E-08   8.684997417520879E-08   8.904849382442252E-08
   9.130266424336237E-08   9.361389398058335E-08   9.598362722902015E-08
   9.841334472765255E-08   1.009045646859622E-07   1.034588437317540E-07
   1.060777778829360E-07   1.087630035438567E-07   1.115161985268249E-07
   1.143390830994437E-07   1.172334210584115E-07   1.202010208304560E-07
   1.232437366010888E-07   1.263634694718785E-07   1.295621686469637E-07
   1.328418326495426E-07   1.362045105690951E-07   1.396523033401112E-07
   1.431873650531221E-07   1.468119042988461E-07   1.505281855462839E-07
   1.543385305556199E-07   1.582453198268067E-07   1.622509940847295E-07
   1.663580558018747E-07   1.705690707594454E-07   1.748866696478922E-07
   1.793135497078519E-07   1.838524764125132E-07   1.885062851924476E-07
   1.932778832039817E-07   1.981702511421981E-07   2.031864450996930E-07
   2.083295984722426E-07   2.136029239125552E-07   2.190097153333167E-07
   2.245533499607770E-07   2.302372904401362E-07   2.360650869940449E-07
   2.420403796355444E-07   2.481669004368171E-07   2.544484758551541E-07
   2.608890291175677E-07   2.674925826655305E-07   2.742632606613484E-07
   2.812052915577058E-07   2.883230107319869E-07   2.956208631869778E-07
   3.031034063196285E-07   3.107753127595793E-07   3.186413732791927E-07
   3.267064997768967E-07   3.349757283356624E-07   3.434542223585134E-07
   3.521472757829795E-07   3.610603163764869E-07   3.701989091147052E-07
   3.795687596449182E-07   3.891757178365665E-07   3.990257814211208E-07
   4.091250997235316E-07   4.194799774875427E-07   4.300968787972111E-07
   4.409824310970372E-07   4.521434293131722E-07   4.635868400782176E-07
   4.753198060622078E-07   4.873496504124251E-07   4.996838813047535E-07
   5.123301966093600E-07   5.252964886735517E-07   5.385908492247081E-07
   5.522215743963109E-07   5.661971698801051E-07   5.805263562075395E-07
   5.952180741637079E-07   6.102814903370658E-07   6.257260028083088E-07
   6.415612469818697E-07   6.577971015635495E-07   6.744436946879447E-07
   6.915114101993392E-07   7.090108940899009E-07   7.269530610990582E-07
   7.453491014780358E-07   7.642104879236681E-07   7.835489826856171E-07
   8.033766448513500E-07   8.237058378131903E-07   8.445492369219903E-07
   8.659198373319936E-07   8.878309620415983E-07   9.102962701348589E-07
   9.333297652286547E-07   9.569458041305623E-07   9.811591057126548E-07
   1.005984760006446E-06   1.031438237524494E-06   1.057535398814143E-06
   1.084292504249118E-06   1.111726224064796E-06   1.139853648643064E-06
   1.168692299052913E-06   1.198260137852959E-06   1.228575580162287E-06
   1.259657505006156E-06   1.291525266943219E-06   1.324198707981125E-06
   1.357698169787481E-06   1.392044506203317E-06   1.427259096066410E-06
   1.463363856351901E-06   1.500381255637933E-06   1.538334327904059E-06
   1.577246686670529E-06   1.617142539486557E-06   1.658046702776008E-06
   1.699984617049050E-06   1.742982362488535E-06   1.787066674920042E-06
   1.832264962174817E-06   1.878605320854822E-06   1.926116553509613E-06
   1.974828186234729E-06   2.024770486701615E-06   2.075974482629275E-06
   2.128471980708081E-06   2.182295585986407E-06   2.237478721730991E-06
   2.294055649772064E-06   2.352061491344713E-06   2.411532248437958E-06
   2.472504825663488E-06   2.535017052656030E-06   2.599107707017806E-06
   2.664816537819559E-06   2.732184289671111E-06   2.801252727374426E-06
   2.872064661172710E-06   2.944663972609057E-06   3.019095641008652E-06
   3.095405770598682E-06   3.173641618280431E-06   3.253851622068280E-06
   3.336085430210725E-06   3.420393931008652E-06   3.506829283346517E-06
   3.595444947952276E-06   3.686295719402391E-06   3.779437758888199E-06
   3.874928627760585E-06   3.972827321870015E-06   4.073194306719154E-06
   4.176091553445965E-06   4.281582575655167E-06   4.389732467116170E-06
   4.500607940346401E-06   4.614277366098512E-06   4.730810813770930E-06
   4.850280092761035E-06   4.972758794780807E-06   5.098322337154924E-06
   5.227048007121694E-06   5.359015007157369E-06   5.494304501344826E-06
   5.632999662807651E-06   5.775185722231175E-06   5.920950017492036E-06
   6.070382044418289E-06   6.223573508702166E-06   6.380618378988044E-06
   6.541612941158004E-06   6.706655853838028E-06   6.875848205147843E-06
   7.049293570717506E-06   7.227098072994289E-06   7.409370441863219E-06
   7.596222076605047E-06   7.787767109215378E-06   7.984122469108880E-06
   8.185407949232267E-06   8.391746273610381E-06   8.603263166348968E-06
   8.820087422118197E-06   9.042350978141094E-06   9.270188987710129E-06
   9.503739895256202E-06   9.743145512992963E-06   9.988551099160318E-06
   1.024010543788970E-05   1.049796092071402E-05   1.076227362974477E-05
   1.103320342253776E-05   1.131091401866961E-05   1.159557308804549E-05
   1.188735234095832E-05   1.218642761991951E-05   1.249297899327965E-05
   1.280719085065739E-05   1.312925200019361E-05   1.345935576764669E-05
   1.379770009734427E-05   1.414448765500446E-05   1.449992593243951E-05
   1.486422735415261E-05   1.523760938583655E-05   1.562029464478293E-05
   1.601251101220603E-05   1.641449174748627E-05   1.682647560433416E-05
   1.724870694887355E-05   1.768143587964134E-05   1.812491834949650E-05
   1.857941628943035E-05   1.904519773426495E-05   1.952253695022387E-05
   2.001171456435703E-05   2.051301769579482E-05   2.102674008880550E-05
   2.155318224762356E-05   2.209265157301217E-05   2.264546250051892E-05
   2.321193664037707E-05   2.379240291900019E-05   2.438719772201100E-05
   2.499666503873910E-05   2.562115660811578E-05   2.626103206588482E-05
   2.691665909304395E-05   2.758841356541911E-05   2.827667970426756E-05
   2.898185022779657E-05   2.970432650347150E-05   3.044451870098109E-05
   3.120284594571204E-05   3.197973647257593E-05   3.277562778001867E-05
   3.359096678402641E-05   3.442620997193341E-05   3.528182355581495E-05
   3.615828362524008E-05   3.705607629913597E-05   3.797569787650119E-05
   3.891765498568634E-05   3.988246473193915E-05   4.087065484289078E-05
   4.188276381163875E-05   4.291934103705636E-05   4.398094696093642E-05
   4.506815320154783E-05   4.618154268315857E-05   4.732170976104797E-05
   4.848926034149988E-05   4.968481199623724E-05   5.090899407072372E-05
   5.216244778572017E-05   5.344582633144853E-05   5.475979495367137E-05
   5.610503103095803E-05   5.748222414235754E-05   5.889207612465576E-05
   6.033530111834297E-05   6.181262560136372E-05   6.332478840966833E-05
   6.487254074352580E-05   6.645664615849667E-05   6.807788053989777E-05
   6.973703205952685E-05   7.143490111333908E-05   7.317230023869533E-05
   7.495005400971972E-05   7.676899890922230E-05   7.862998317555430E-05
   8.053386662267015E-05   8.248152043157368E-05   8.447382691122374E-05
   8.651167922686507E-05   8.859598109363864E-05   9.072764643320620E-05
   9.290759899099931E-05   9.513677191156636E-05   9.741610726936268E-05
   9.974655555217062E-05   1.021290750941980E-04   1.045646314557276E-04
   1.070541967460356E-04   1.095987488861095E-04   1.121992708075149E-04
   1.148567495835670E-04   1.175721754887490E-04   1.203465409821164E-04
   1.231808396101907E-04   1.260760648246107E-04   1.290332087095670E-04
   1.320532606137738E-04   1.351372056814680E-04   1.382860232766337E-04
   1.415006852943450E-04   1.447821543528173E-04   1.481313818594067E-04
   1.515493059434728E-04   1.550368492486335E-04   1.585949165765791E-04
   1.622243923741969E-04   1.659261380553565E-04   1.697009891482482E-04
   1.735497522587298E-04   1.774732018396332E-04   1.814720767555034E-04
   1.855470766316986E-04   1.896988579762331E-04   1.939280300621833E-04
   1.982351505578444E-04   2.026207208912319E-04   2.070851813348346E-04
   2.116289057958477E-04   2.162521962964058E-04   2.209552771275568E-04
   2.257382886599660E-04   2.306012807934891E-04   2.355442060269222E-04
   2.405669121283235E-04   2.456691343853787E-04   2.508504874143111E-04
   2.561104565048180E-04   2.614483884774576E-04   2.668634820288131E-04
   2.723547775386085E-04   2.779211463117531E-04   2.835612792270513E-04
   2.892736747630118E-04   2.950566263698511E-04   3.009082091553648E-04
   3.068262658509082E-04   3.128083920221857E-04   3.188519204879940E-04
   3.249539049084162E-04   3.311111025022734E-04   3.373199558518840E-04
   3.435765737513420E-04   3.498767110526543E-04   3.562157474621089E-04
   3.625886652372061E-04   3.689900257324240E-04   3.754139447398760E-04
   3.818540665687308E-04   3.883035368049022E-04   3.947549736901747E-04
   4.012004380574506E-04   4.076314017562861E-04   4.140387145002728E-04
   4.204125690651516E-04   4.267424647637962E-04   4.330171691213857E-04
   4.392246776712050E-04   4.453521717885424E-04   4.513859744771573E-04
   4.573115040196847E-04   4.631132254002226E-04   4.687745994041590E-04
   4.742780292970165E-04   4.796048049808756E-04   4.847350445235247E-04
   4.896476329522121E-04   4.943201582004622E-04   4.987288440930224E-04
   5.028484802506658E-04   5.066523487931248E-04   5.101121477151674E-04
   5.131979108074385E-04   5.158779239904611E-04   5.181186379270347E-04
   5.198845767751151E-04   5.211382429403440E-04   5.218400176845335E-04
   5.219480574437511E-04   5.214181857071962E-04   5.202037803057622E-04
   5.182556559573210E-04   5.155219419139194E-04   5.119479545549603E-04
   5.074760647692726E-04   5.020455599686782E-04   4.955925005755467E-04
   4.880495708273576E-04   4.793459237425433E-04   4.694070200936123E-04
   4.581544612362511E-04   4.455058156464103E-04   4.313744390218527E-04
   4.156692878099057E-04   3.982947260296162E-04   3.791503252642747E-04
   3.581306577091475E-04   3.351250821698095E-04   3.100175229184500E-04
   2.826862413292126E-04   2.530036002293531E-04   2.208358209204826E-04
   1.860427328440641E-04   1.484775158874761E-04   1.079864353516124E-04
   6.440856962862916E-05   1.757553066866844E-05  -3.268882265177516E-05
  -8.656867811017259E-05  -1.442565704767454E-04  -2.059536883763785E-04
  -2.718701873900076E-04  -3.422255090578582E-04  -4.172487053890330E-04
  -4.971787684186976E-04  -5.822649642847596E-04  -6.727671712221115E-04
  -7.689562207910299E-04  -8.711142415694225E-04  -9.795350044443782E-04
  -1.094524268536631E-03  -1.216400126682905E-03  -1.345493349283000E-03
  -1.482147725193152E-03  -1.626720398212340E-03  -1.779582197563211E-03
  -1.941117960616436E-03  -2.111726845941691E-03  -2.291822634594255E-03
  -2.481834017360251E-03  -2.682204865484946E-03  -2.893394482200726E-03
  -3.115877832148268E-03  -3.350145745551125E-03  -3.596705093757433E-03
  -3.856078932501117E-03  -4.128806608964001E-03  -4.415443828431792E-03
  -4.716562676038785E-03  -5.032751588783038E-03  -5.364615272666858E-03
  -5.712774559480724E-03  -6.077866197395984E-03  -6.460542569170254E-03
  -6.861471331396217E-03  -7.281334967839601E-03  -7.720830249522335E-03
  -8.180667593805278E-03  -8.661570314321375E-03  -9.164273753202277E-03
  -9.689524286629562E-03  -1.023807819433747E-02  -1.081070038328786E-02
  -1.140816295534514E-02  -1.203124360839791E-02  -1.268072386000597E-02
  -1.335738708231329E-02  -1.406201633664906E-02  -1.479539199596188E-02
  -1.555828914299496E-02  -1.635147473191861E-02  -1.717570450101291E-02
  -1.803171962392668E-02  -1.892024308706048E-02  -1.984197578073016E-02
  -2.079759229197421E-02  -2.178773638720276E-02  -2.281301617333799E-02
  -2.387399892670573E-02  -2.497120557970768E-02  -2.610510485625017E-02
  -2.727610704806437E-02  -2.848455742541907E-02  -2.973072927734737E-02
  -3.101481657838923E-02  -3.233692628101507E-02  -3.369707023538578E-02
  -3.509515674091359E-02  -3.653098173727421E-02  -3.800421964609214E-02
  -3.951441387849602E-02  -4.106096702817585E-02  -4.264313077445081E-02
  -4.425999552523967E-02  -4.591047983571376E-02  -4.759331964482272E-02
  -4.930705737886273E-02  -5.105003097877318E-02  -5.282036291595697E-02
  -5.461594927009548E-02  -5.643444895167177E-02  -5.827327316174007E-02
  -6.012957519182578E-02  -6.200024067771905E-02  -6.388187843227179E-02
  -6.577081199406483E-02  -6.766307204093602E-02  -6.955438982972291E-02
  -7.144019183610634E-02  -7.331559578099436E-02  -7.517540824229837E-02
  -7.701412406308333E-02  -7.882592777866010E-02  -8.060469729604532E-02
  -8.234401006903687E-02  -8.403715202063673E-02  -8.567712947138728E-02
  -8.725668433693151E-02  -8.876831286040160E-02  -9.020428814457593E-02
  -9.155668674462772E-02  -9.281741957419581E-02  -9.397826736481114E-02
  -9.503092090083377E-02  -9.596702622830937E-02  -9.677823500586302E-02
  -9.745626012822589E-02  -9.799293670748747E-02  -9.838028844300478E-02
  -9.861059934733941E-02  -9.867649072199297E-02  -9.857100319242290E-02
  -9.828768351631194E-02  -9.782067577187277E-02  -9.716481641378789E-02
  -9.631573255304804E-02  -9.526994267352561E-02  -9.402495884289608E-02
  -9.257938930909623E-02  -9.093304019684265E-02  -8.908701483315601E-02
  -8.704380903817217E-02  -8.480740052011088E-02  -8.238333031399891E-02
  -7.977877400623176E-02  -7.700260029551277E-02  -7.406541426020410E-02
  -7.097958253850786E-02  -6.775923748780312E-02  -6.442025728055044E-02
  -6.098021882478895E-02  -5.745832037676972E-02  -5.387527075180849E-02
  -5.025314214782484E-02  -4.661518378584286E-02  -4.298559385481202E-02
  -3.938924763670205E-02  -3.585138019405702E-02  -3.239722263770833E-02
  -2.905159176811963E-02  -2.583843380928370E-02  -2.278032403684443E-02
  -1.989792534709223E-02  -1.720941022211765E-02  -1.472985211601933E-02
  -1.247059400953037E-02  -1.043860374156607E-02  -8.635827704456395E-03
  -7.058556555067982E-03  -5.696818707397432E-03  -4.533819483752730E-03
  -3.545445850375747E-03  -2.705054782599081E-03  -2.001015670035577E-03
  -1.424954387274857E-03  -9.671448031141061E-04  -6.165562028336846E-04
  -3.609125804472924E-04  -1.867637335798977E-04  -7.956824304222732E-05
  -2.378848459877458E-05  -2.997813959182416E-06   0.000000000000000E+00
   0.000000000000000E+00   0.000000000000000E+00   0.000000000000000E+00
   0.000000000000000E+00   0.000000000000000E+00   0.000000000000000E+00
   0.000000000000000E+00   0.000000000000000E+00   0.000000000000000E+00
   0.000000000000000E+00   0.000000000000000E+00   0.000000000000000E+00
   0.000000000000000E+00   0.000000000000000E+00   0.000000000000000E+00
   0.000000000000000E+00   0.000000000000000E+00   0.000000000000000E+00
   0.000000000000000E+00   0.000000000000000E+00   0.000000000000000E+00
   0.000000000000000E+00   0.000000000000000E+00   0.000000000000000E+00
   0.000000000000000E+00   0.000000000000000E+00   0.000000000000000E+00
   0.000000000000000E+00   0.000000000000000E+00   0.000000000000000E+00
   0.000000000000000E+00   0.000000000000000E+00   0.000000000000000E+00
   0.000000000000000E+00   0.000000000000000E+00   0.000000000000000E+00
   0.000000000000000E+00   0.000000000000000E+00   0.000000000000000E+00
   0.000000000000000E+00   0.000000000000000E+00   0.000000000000000E+00
   0.000000000000000E+00   0.000000000000000E+00   0.000000000000000E+00
   0.000000000000000E+00   0.000000000000000E+00   0.000000000000000E+00
   0.000000000000000E+00   0.000000000000000E+00   0.000000000000000E+00
   0.000000000000000E+00   0.000000000000000E+00   0.000000000000000E+00
   0.000000000000000E+00   0.000000000000000E+00   0.000000000000000E+00
   0.000000000000000E+00   0.000000000000000E+00   0.000000000000000E+00
   0.000000000000000E+00   0.000000000000000E+00   0.000000000000000E+00
   0.000000000000000E+00   0.000000000000000E+00   0.000000000000000E+00
   0.000000000000000E+00   0.000000000000000E+00   0.000000000000000E+00
   0.000000000000000E+00   0.000000000000000E+00   0.000000000000000E+00
   0.000000000000000E+00   0.000000000000000E+00   0.000000000000000E+00
   0.000000000000000E+00   0.000000000000000E+00   0.000000000000000E+00
   0.000000000000000E+00   0.000000000000000E+00   0.000000000000000E+00
   0.000000000000000E+00   0.000000000000000E+00   0.000000000000000E+00
   0.000000000000000E+00   0.000000000000000E+00   0.000000000000000E+00
   0.000000000000000E+00   0.000000000000000E+00   0.000000000000000E+00
   0.000000000000000E+00   0.000000000000000E+00   0.000000000000000E+00
   0.000000000000000E+00   0.000000000000000E+00   0.000000000000000E+00
   0.000000000000000E+00   0.000000000000000E+00   0.000000000000000E+00
   0.000000000000000E+00   0.000000000000000E+00   0.000000000000000E+00
   0.000000000000000E+00   0.000000000000000E+00   0.000000000000000E+00
   0.000000000000000E+00   0.000000000000000E+00   0.000000000000000E+00
   0.000000000000000E+00   0.000000000000000E+00   0.000000000000000E+00
   0.000000000000000E+00   0.000000000000000E+00   0.000000000000000E+00
   0.000000000000000E+00   0.000000000000000E+00   0.000000000000000E+00
   0.000000000000000E+00   0.000000000000000E+00   0.000000000000000E+00
   0.000000000000000E+00   0.000000000000000E+00   0.000000000000000E+00
   0.000000000000000E+00   0.000000000000000E+00   0.000000000000000E+00
   0.000000000000000E+00   0.000000000000000E+00   0.000000000000000E+00
   0.000000000000000E+00   0.000000000000000E+00   0.000000000000000E+00
   0.000000000000000E+00   0.000000000000000E+00   0.000000000000000E+00
   0.000000000000000E+00   0.000000000000000E+00   0.000000000000000E+00
   0.000000000000000E+00   0.000000000000000E+00   0.000000000000000E+00
   0.000000000000000E+00   0.000000000000000E+00   0.000000000000000E+00
   0.000000000000000E+00   0.000000000000000E+00   0.000000000000000E+00
   0.000000000000000E+00   0.000000000000000E+00   0.000000000000000E+00
   0.000000000000000E+00   0.000000000000000E+00   0.000000000000000E+00
   0.000000000000000E+00   0.000000000000000E+00   0.000000000000000E+00
   0.000000000000000E+00   0.000000000000000E+00   0.000000000000000E+00
   0.000000000000000E+00   0.000000000000000E+00   0.000000000000000E+00
   0.000000000000000E+00   0.000000000000000E+00   0.000000000000000E+00
   0.000000000000000E+00   0.000000000000000E+00   0.000000000000000E+00
   0.000000000000000E+00   0.000000000000000E+00   0.000000000000000E+00
   0.000000000000000E+00   0.000000000000000E+00   0.000000000000000E+00
   0.000000000000000E+00   0.000000000000000E+00   0.000000000000000E+00
   0.000000000000000E+00   0.000000000000000E+00   0.000000000000000E+00
   0.000000000000000E+00   0.000000000000000E+00   0.000000000000000E+00
   0.000000000000000E+00   0.000000000000000E+00   0.000000000000000E+00
   0.000000000000000E+00   0.000000000000000E+00   0.000000000000000E+00
   0.000000000000000E+00   0.000000000000000E+00   0.000000000000000E+00
   0.000000000000000E+00   0.000000000000000E+00   0.000000000000000E+00
   0.000000000000000E+00   0.000000000000000E+00   0.000000000000000E+00
   0.000000000000000E+00   0.000000000000000E+00   0.000000000000000E+00
   0.000000000000000E+00   0.000000000000000E+00   0.000000000000000E+00
   0.000000000000000E+00   0.000000000000000E+00   0.000000000000000E+00
   0.000000000000000E+00   0.000000000000000E+00   0.000000000000000E+00
   0.000000000000000E+00   0.000000000000000E+00   0.000000000000000E+00
   0.000000000000000E+00   0.000000000000000E+00   0.000000000000000E+00
   0.000000000000000E+00   0.000000000000000E+00   0.000000000000000E+00
   0.000000000000000E+00   0.000000000000000E+00   0.000000000000000E+00
   0.000000000000000E+00   0.000000000000000E+00   0.000000000000000E+00
   0.000000000000000E+00   0.000000000000000E+00   0.000000000000000E+00
   0.000000000000000E+00   0.000000000000000E+00   0.000000000000000E+00
   0.000000000000000E+00   0.000000000000000E+00   0.000000000000000E+00
   0.000000000000000E+00   0.000000000000000E+00   0.000000000000000E+00
   0.000000000000000E+00   0.000000000000000E+00   0.000000000000000E+00
   0.000000000000000E+00   0.000000000000000E+00   0.000000000000000E+00
   0.000000000000000E+00   0.000000000000000E+00   0.000000000000000E+00
   0.000000000000000E+00   0.000000000000000E+00   0.000000000000000E+00
   0.000000000000000E+00   0.000000000000000E+00   0.000000000000000E+00
   0.000000000000000E+00   0.000000000000000E+00   0.000000000000000E+00
   0.000000000000000E+00   0.000000000000000E+00   0.000000000000000E+00
   0.000000000000000E+00   0.000000000000000E+00   0.000000000000000E+00
   0.000000000000000E+00   0.000000000000000E+00   0.000000000000000E+00
   0.000000000000000E+00   0.000000000000000E+00   0.000000000000000E+00
   0.000000000000000E+00   0.000000000000000E+00   0.000000000000000E+00
   0.000000000000000E+00   0.000000000000000E+00   0.000000000000000E+00
   0.000000000000000E+00   0.000000000000000E+00   0.000000000000000E+00
   0.000000000000000E+00   0.000000000000000E+00   0.000000000000000E+00
   0.000000000000000E+00   0.000000000000000E+00   0.000000000000000E+00
   0.000000000000000E+00   0.000000000000000E+00   0.000000000000000E+00
   0.000000000000000E+00   0.000000000000000E+00   0.000000000000000E+00
   0.000000000000000E+00   0.000000000000000E+00   0.000000000000000E+00
   0.000000000000000E+00   0.000000000000000E+00   0.000000000000000E+00
   0.000000000000000E+00   0.000000000000000E+00   0.000000000000000E+00
   0.000000000000000E+00   0.000000000000000E+00   0.000000000000000E+00
   0.000000000000000E+00   0.000000000000000E+00   0.000000000000000E+00
   0.000000000000000E+00   0.000000000000000E+00   0.000000000000000E+00
   0.000000000000000E+00   0.000000000000000E+00   0.000000000000000E+00
   0.000000000000000E+00
      </PP_QIJL.1.1.0>
      <PP_QIJL.1.2.0 first_index="1" second_index="2" composite_index="2" angular_momentum="0" size="1135">
  -2.260517153934253E-09  -2.317742417444866E-09  -2.376416345362978E-09
  -2.436575610800851E-09  -2.498257815254920E-09  -2.561501512107926E-09
  -2.626346230726044E-09  -2.692832501166010E-09  -2.761001879507708E-09
  -2.830896973828093E-09  -2.902561470832584E-09  -2.976040163160682E-09
  -3.051378977382820E-09  -3.128625002705944E-09  -3.207826520405816E-09
  -3.289033034004332E-09  -3.372295300210849E-09  -3.457665360646763E-09
  -3.545196574373189E-09  -3.634943651242134E-09  -3.726962686091871E-09
  -3.821311193808062E-09  -3.918048145272390E-09  -4.017234004221283E-09
  -4.118930765037706E-09  -4.223201991499609E-09  -4.330112856509379E-09
  -4.439730182828985E-09  -4.552122484846350E-09  -4.667360011399092E-09
  -4.785514789682244E-09  -4.906660670267626E-09  -5.030873373262795E-09
  -5.158230535638565E-09  -5.288811759754621E-09  -5.422698663113526E-09
  -5.559974929374294E-09  -5.700726360657379E-09  -5.845040931173732E-09
  -5.993008842211557E-09  -6.144722578514947E-09  -6.300276966089858E-09
  -6.459769231473391E-09  -6.623299062503496E-09  -6.790968670627099E-09
  -6.962882854785467E-09  -7.139149066916953E-09  -7.319877479117879E-09
  -7.505181052503622E-09  -7.695175607812953E-09  -7.889979897799653E-09
  -8.089715681456810E-09  -8.294507800120075E-09  -8.504484255497468E-09
  -8.719776289674585E-09  -8.940518467145009E-09  -9.166848758917460E-09
  -9.398908628752048E-09  -9.636843121579643E-09  -9.880800954159598E-09
  -1.013093460803239E-08  -1.038740042482548E-08  -1.065035870397178E-08
  -1.091997380290187E-08  -1.119641423977271E-08  -1.147985279879666E-08
  -1.177046663823723E-08  -1.206843740113854E-08  -1.237395132885798E-08
  -1.268719937747300E-08  -1.300837733713459E-08  -1.333768595444240E-08
  -1.367533105791765E-08  -1.402152368665242E-08  -1.437648022221588E-08
  -1.474042252389937E-08  -1.511357806738555E-08  -1.549618008692784E-08
  -1.588846772112913E-08  -1.629068616241098E-08  -1.670308681026642E-08
  -1.712592742839262E-08  -1.755947230580123E-08  -1.800399242200721E-08
  -1.845976561639965E-08  -1.892707676189982E-08  -1.940621794301577E-08
  -1.989748863840418E-08  -2.040119590805379E-08  -2.091765458520755E-08
  -2.144718747314300E-08  -2.199012554693433E-08  -2.254680816032212E-08
  -2.311758325781977E-08  -2.370280759218977E-08  -2.430284694742484E-08
  -2.491807636737440E-08  -2.554888039015840E-08  -2.619565328851540E-08
  -2.685879931623525E-08  -2.753873296082980E-08  -2.823587920260041E-08
  -2.895067378026351E-08  -2.968356346330051E-08  -3.043500633120246E-08
  -3.120547205978333E-08  -3.199544221474169E-08  -3.280541055265383E-08
  -3.363588332958645E-08  -3.448737961752195E-08  -3.536043162879390E-08
  -3.625558504873564E-08  -3.717339937674997E-08  -3.811444827601286E-08
  -3.907931993203018E-08  -4.006861742027068E-08  -4.108295908310626E-08
  -4.212297891629411E-08  -4.318932696524261E-08  -4.428266973130903E-08
  -4.540369058838194E-08  -4.655309021001019E-08  -4.773158700734391E-08
  -4.893991757816257E-08  -5.017883716726986E-08  -5.144912013854316E-08
  -5.275156045893337E-08  -5.408697219471697E-08  -5.545619002031050E-08
  -5.686006973996616E-08  -5.829948882267310E-08  -5.977534695060062E-08
  -6.128856658142470E-08  -6.284009352488971E-08  -6.443089753396634E-08
  -6.606197291097331E-08  -6.773433912904425E-08  -6.944904146932632E-08
  -7.120715167430939E-08  -7.300976861769463E-08  -7.485801899121976E-08
  -7.675305800887209E-08  -7.869607012892820E-08  -8.068826979427165E-08
  -8.273090219145260E-08  -8.482524402896137E-08  -8.697260433520526E-08
  -8.917432527668515E-08  -9.143178299688416E-08  -9.374638847639328E-08
  -9.611958841480934E-08  -9.855286613495963E-08  -1.010477425100155E-07
  -1.036057769140763E-07  -1.062285681968172E-07  -1.089177556828088E-07
  -1.116750201961352E-07  -1.145020851109499E-07  -1.174007174286258E-07
  -1.203727288821733E-07  -1.234199770686152E-07  -1.265443666100289E-07
  -1.297478503439792E-07  -1.330324305440849E-07  -1.364001601714879E-07
  -1.398531441579958E-07  -1.433935407217144E-07  -1.470235627159787E-07
  -1.507454790124346E-07  -1.545616159191326E-07  -1.584743586345167E-07
  -1.624861527382264E-07  -1.665995057196300E-07  -1.708169885450580E-07
  -1.751412372647079E-07  -1.795749546602242E-07  -1.841209119339923E-07
  -1.887819504411886E-07  -1.935609834656810E-07  -1.984609980408853E-07
  -2.034850568167098E-07  -2.086362999737694E-07  -2.139179471860477E-07
  -2.193332996332478E-07  -2.248857420640840E-07  -2.305787449117989E-07
  -2.364158664632419E-07  -2.424007550828481E-07  -2.485371514929186E-07
  -2.548288911116265E-07  -2.612799064501993E-07  -2.678942295707969E-07
  -2.746759946065936E-07  -2.816294403456643E-07  -2.887589128802763E-07
  -2.960688683232394E-07  -3.035638755930290E-07  -3.112486192693995E-07
  -3.191279025212915E-07  -3.272066501088563E-07  -3.354899114614635E-07
  -3.439828638336403E-07  -3.526908155408834E-07  -3.616192092773913E-07
  -3.707736255177798E-07  -3.801597860048982E-07  -3.897835573259501E-07
  -3.996509545791235E-07  -4.097681451330442E-07  -4.201414524813953E-07
  -4.307773601950999E-07  -4.416825159745634E-07  -4.528637358044754E-07
  -4.643280082137921E-07  -4.760824986435550E-07  -4.881345539252592E-07
  -5.004917068726043E-07  -5.131616809894573E-07  -5.261523952969982E-07
  -5.394719692830574E-07  -5.531287279767220E-07  -5.671312071514156E-07
  -5.814881586596624E-07  -5.962085559029005E-07  -6.113015994397535E-07
  -6.267767227362443E-07  -6.426435980615901E-07  -6.589121425332076E-07
  -6.755925243147468E-07  -6.926951689710140E-07  -7.102307659837344E-07
  -7.282102754322722E-07  -7.466449348434256E-07  -7.655462662146195E-07
  -7.849260832148763E-07  -8.047964985680281E-07  -8.251699316228547E-07
  -8.460591161147930E-07  -8.674771081241356E-07  -8.894372942356605E-07
  -9.119533999047722E-07  -9.350394980354393E-07  -9.587100177752143E-07
  -9.829797535328880E-07  -1.007863874224386E-06  -1.033377932752683E-06
  -1.059537875727675E-06  -1.086360053432048E-06  -1.113861230039415E-06
  -1.142058594091069E-06  -1.170969769237896E-06  -1.200612825254193E-06
  -1.231006289330231E-06  -1.262169157650639E-06  -1.294120907265842E-06
  -1.326881508263956E-06  -1.360471436250758E-06  -1.394911685145507E-06
  -1.430223780300637E-06  -1.466429791953490E-06  -1.503552349018498E-06
  -1.541614653228446E-06  -1.580640493633614E-06  -1.620654261467894E-06
  -1.661680965391139E-06  -1.703746247117258E-06  -1.746876397437858E-06
  -1.791098372651382E-06  -1.836439811408058E-06  -1.882929051981146E-06
  -1.930595149975266E-06  -1.979467896482899E-06  -2.029577836700349E-06
  -2.080956289014837E-06  -2.133635364574627E-06  -2.187647987354384E-06
  -2.243027914728331E-06  -2.299809758564017E-06  -2.358029006849887E-06
  -2.417722045870155E-06  -2.478926182940798E-06  -2.541679669720914E-06
  -2.606021726113948E-06  -2.671992564773732E-06  -2.739633416230651E-06
  -2.808986554653565E-06  -2.880095324263652E-06  -2.953004166416561E-06
  -3.027758647369867E-06  -3.104405486753111E-06  -3.182992586758188E-06
  -3.263569062068346E-06  -3.346185270544416E-06  -3.430892844687460E-06
  -3.517744723897492E-06  -3.606795187548310E-06  -3.698099888899208E-06
  -3.791715889864595E-06  -3.887701696663320E-06  -3.986117296369898E-06
  -4.087024194390404E-06  -4.190485452886514E-06  -4.296565730171545E-06
  -4.405331321103158E-06  -4.516850198497889E-06  -4.631192055593294E-06
  -4.748428349584294E-06  -4.868632346260739E-06  -4.991879165774156E-06
  -5.118245829562139E-06  -5.247811308459623E-06  -5.380656572027169E-06
  -5.516864639126815E-06  -5.656520629777205E-06  -5.799711818320230E-06
  -5.946527687932304E-06  -6.097059986514351E-06  -6.251402783995193E-06
  -6.409652531084179E-06  -6.571908119509622E-06  -6.738270943780524E-06
  -6.908844964510178E-06  -7.083736773340977E-06  -7.263055659510997E-06
  -7.446913678103692E-06  -7.635425720023406E-06  -7.828709583739947E-06
  -8.026886048847297E-06  -8.230078951481972E-06  -8.438415261648125E-06
  -8.652025162497514E-06  -8.871042131613563E-06  -9.095603024350364E-06
  -9.325848159278230E-06  -9.561921405789097E-06  -9.803970273916368E-06
  -1.005214600642478E-05  -1.030660367322797E-05  -1.056750226819220E-05
  -1.083500480838652E-05  -1.110927843584120E-05  -1.139049452187734E-05
  -1.167882877407313E-05  -1.197446134593259E-05  -1.227757694932545E-05
  -1.258836496976782E-05  -1.290701958461517E-05  -1.323373988424137E-05
  -1.356872999627880E-05  -1.391219921299677E-05  -1.426436212189737E-05
  -1.462543873960971E-05  -1.499565464916588E-05  -1.537524114074366E-05
  -1.576443535596330E-05  -1.616348043582811E-05  -1.657262567240023E-05
  -1.699212666430607E-05  -1.742224547616762E-05  -1.786325080205841E-05
  -1.831541813308570E-05  -1.877902992920227E-05  -1.925437579535481E-05
  -1.974175266207760E-05  -2.024146497064348E-05  -2.075382486288686E-05
  -2.127915237581565E-05  -2.181777564113363E-05  -2.237003108979547E-05
  -2.293626366172186E-05  -2.351682702080400E-05  -2.411208377533007E-05
  -2.472240570397066E-05  -2.534817398746201E-05  -2.598977944613059E-05
  -2.664762278340564E-05  -2.732211483546951E-05  -2.801367682720050E-05
  -2.872274063456568E-05  -2.944974905362544E-05  -3.019515607631598E-05
  -3.095942717317881E-05  -3.174303958321261E-05  -3.254648261102482E-05
  -3.337025793146643E-05  -3.421487990193730E-05  -3.508087588255412E-05
  -3.596878656437715E-05  -3.687916630589881E-05  -3.781258347799930E-05
  -3.876962081758196E-05  -3.975087579010537E-05  -4.075696096123336E-05
  -4.178850437783277E-05  -4.284614995855052E-05  -4.393055789421029E-05
  -4.504240505827372E-05  -4.618238542761659E-05  -4.735121051387816E-05
  -4.854960980564687E-05  -4.977833122175209E-05  -5.103814157593946E-05
  -5.232982705321219E-05  -5.365419369812961E-05  -5.501206791535999E-05
  -5.640429698279244E-05  -5.783174957752049E-05  -5.929531631501587E-05
  -6.079591030182183E-05  -6.233446770210021E-05  -6.391194831837637E-05
  -6.552933618683437E-05  -6.718764018752194E-05  -6.888789466983578E-05
  -7.063116009366465E-05  -7.241852368657759E-05  -7.425110011745483E-05
  -7.613003218696568E-05  -7.805649153531218E-05  -8.003167936766197E-05
  -8.205682719770838E-05  -8.413319760980386E-05  -8.626208504012327E-05
  -8.844481657732678E-05  -9.068275278320133E-05  -9.297728853377074E-05
  -9.532985388137875E-05  -9.774191493825682E-05  -1.002149747821063E-04
  -1.027505743842324E-04  -1.053502935607812E-04  -1.080157519476473E-04
  -1.107486099996258E-04  -1.135505700144046E-04  -1.164233771820002E-04
  -1.193688206602565E-04  -1.223887346770430E-04  -1.254849996597963E-04
  -1.286595433930748E-04  -1.319143422048019E-04  -1.352514221818930E-04
  -1.386728604159784E-04  -1.421807862799476E-04  -1.457773827360605E-04
  -1.494648876763851E-04  -1.532455952963396E-04  -1.571218575021365E-04
  -1.610960853529380E-04  -1.651707505385607E-04  -1.693483868935750E-04
  -1.736315919486711E-04  -1.780230285201823E-04  -1.825254263386695E-04
  -1.871415837175008E-04  -1.918743692623735E-04  -1.967267236227468E-04
  -2.017016612861820E-04  -2.068022724165932E-04  -2.120317247374553E-04
  -2.173932654610169E-04  -2.228902232646009E-04  -2.285260103150990E-04
  -2.343041243427765E-04  -2.402281507655485E-04  -2.463017648648934E-04
  -2.525287340146039E-04  -2.589129199636012E-04  -2.654582811740529E-04
  -2.721688752160785E-04  -2.790488612203332E-04  -2.861025023897980E-04
  -2.933341685721322E-04  -3.007483388939555E-04  -3.083496044584807E-04
  -3.161426711079154E-04  -3.241323622521026E-04  -3.323236217648857E-04
  -3.407215169497091E-04  -3.493312415760092E-04  -3.581581189879602E-04
  -3.672076052871796E-04  -3.764852925910272E-04  -3.859969123681484E-04
  -3.957483388529618E-04  -4.057455925408017E-04  -4.159948437654631E-04
  -4.265024163609326E-04  -4.372747914090971E-04  -4.483186110752805E-04
  -4.596406825334645E-04  -4.712479819830847E-04  -4.831476587593334E-04
  -4.953470395389012E-04  -5.078536326431602E-04  -5.206751324407752E-04
  -5.338194238517838E-04  -5.472945869552149E-04  -5.611089017023106E-04
  -5.752708527374927E-04  -5.897891343291917E-04  -6.046726554127075E-04
  -6.199305447472934E-04  -6.355721561896575E-04  -6.516070740861305E-04
  -6.680451187857351E-04  -6.848963522764313E-04  -7.021710839468321E-04
  -7.198798764756699E-04  -7.380335518513603E-04  -7.566431975239674E-04
  -7.757201726919243E-04  -7.952761147258553E-04  -8.153229457318384E-04
  -8.358728792564911E-04  -8.569384271362157E-04  -8.785324064929671E-04
  -9.006679468789008E-04  -9.233584975722202E-04  -9.466178350265777E-04
  -9.704600704763292E-04  -9.948996576999310E-04  -1.019951400943760E-03
  -1.045630463008571E-03  -1.071952373500824E-03  -1.098933037251025E-03
  -1.126588742901196E-03  -1.154936171663563E-03  -1.183992406252424E-03
  -1.213774939991202E-03  -1.244301686096490E-03  -1.275590987140913E-03
  -1.307661624696514E-03  -1.340532829160222E-03  -1.374224289762948E-03
  -1.408756164763661E-03  -1.444149091829700E-03  -1.480424198604447E-03
  -1.517603113463286E-03  -1.555707976458708E-03  -1.594761450455131E-03
  -1.634786732453909E-03  -1.675807565108738E-03  -1.717848248431463E-03
  -1.760933651688095E-03  -1.805089225484514E-03  -1.850341014041136E-03
  -1.896715667655498E-03  -1.944240455351370E-03  -1.992943277712753E-03
  -2.042852679900689E-03  -2.093997864850457E-03  -2.146408706646345E-03
  -2.200115764070686E-03  -2.255150294323500E-03  -2.311544266908476E-03
  -2.369330377680593E-03  -2.428542063050085E-03  -2.489213514336857E-03
  -2.551379692268897E-03  -2.615076341617505E-03  -2.680340005961475E-03
  -2.747208042571665E-03  -2.815718637406510E-03  -2.885910820208342E-03
  -2.957824479689363E-03  -3.031500378795250E-03  -3.106980170033437E-03
  -3.184306410851913E-03  -3.263522579053526E-03  -3.344673088229377E-03
  -3.427803303193835E-03  -3.512959555402353E-03  -3.600189158331848E-03
  -3.689540422802124E-03  -3.781062672215155E-03  -3.874806257687535E-03
  -3.970822573049745E-03  -4.069164069683983E-03  -4.169884271170715E-03
  -4.273037787711886E-03  -4.378680330296816E-03  -4.486868724574707E-03
  -4.597660924395192E-03  -4.711116024976350E-03  -4.827294275656758E-03
  -4.946257092185740E-03  -5.068067068503252E-03  -5.192787987957735E-03
  -5.320484833907600E-03  -5.451223799648575E-03  -5.585072297605915E-03
  -5.722098967727145E-03  -5.862373685007067E-03  -6.005967566073463E-03
  -6.152952974757393E-03  -6.303403526568342E-03  -6.457394091989879E-03
  -6.615000798506895E-03  -6.776301031271151E-03  -6.941373432306497E-03
  -7.110297898150283E-03  -7.283155575822094E-03  -7.460028857005102E-03
  -7.641001370320063E-03  -7.826157971565344E-03  -8.015584731790487E-03
  -8.209368923064191E-03  -8.407599001790533E-03  -8.610364589420761E-03
  -8.817756450400024E-03  -9.029866467181293E-03  -9.246787612130658E-03
  -9.468613916139880E-03  -9.695440433754072E-03  -9.927363204613172E-03
  -1.016447921099710E-02  -1.040688633125518E-02  -1.065468328889059E-02
  -1.090796959706095E-02  -1.116684549824575E-02  -1.143141189882079E-02
  -1.170177029826931E-02  -1.197802271274772E-02  -1.226027159271341E-02
  -1.254861973430949E-02  -1.284317018419018E-02  -1.314402613745792E-02
  -1.345129082837077E-02  -1.376506741346676E-02  -1.408545884673794E-02
  -1.441256774647473E-02  -1.474649625338760E-02  -1.508734587959943E-02
  -1.543521734808959E-02  -1.579021042215577E-02  -1.615242372444747E-02
  -1.652195454511080E-02  -1.689889863857073E-02  -1.728335000846459E-02
  -1.767540068022631E-02  -1.807514046080908E-02  -1.848265668502125E-02
  -1.889803394793777E-02  -1.932135382283965E-02  -1.975269456412047E-02
  -2.019213079459109E-02  -2.063973317660379E-02  -2.109556806640746E-02
  -2.155969715114081E-02  -2.203217706786210E-02  -2.251305900401101E-02
  -2.300238827869594E-02  -2.350020390419658E-02  -2.400653812707641E-02
  -2.452141594829955E-02  -2.504485462175449E-02  -2.557686313059623E-02
  -2.611744164082734E-02  -2.666658093155781E-02  -2.722426180139838E-02
  -2.779045445046730E-02  -2.836511783751805E-02  -2.894819901172513E-02
  -2.953963241870608E-02  -3.013933918039741E-02  -3.074722634845350E-02
  -3.136318613089353E-02  -3.198709509178189E-02  -3.261881332380241E-02
  -3.325818359366167E-02  -3.390503046034700E-02  -3.455915936636295E-02
  -3.522035570217442E-02  -3.588838384420827E-02  -3.656298616689060E-02
  -3.724388202934352E-02  -3.793076673752044E-02  -3.862331048272653E-02
  -3.932115725766101E-02  -4.002392375131304E-02  -4.073119822426455E-02
  -4.144253936618762E-02  -4.215747513757404E-02  -4.287550159801309E-02
  -4.359608172362099E-02  -4.431864421654252E-02  -4.504258230978239E-02
  -4.576725257097881E-02  -4.649197370912026E-02  -4.721602538860865E-02
  -4.793864705550795E-02  -4.865903678127610E-02  -4.937635012976034E-02
  -5.008969905375293E-02  -5.079815082793967E-02  -5.150072702564317E-02
  -5.219640254735912E-02  -5.288410470970187E-02  -5.356271240403111E-02
  -5.423105533470225E-02  -5.488791334758801E-02  -5.553201586024482E-02
  -5.616204140584325E-02  -5.677661730375564E-02  -5.737431947047724E-02
  -5.795367238536268E-02  -5.851314922647374E-02  -5.905117219265339E-02
  -5.956611302876949E-02  -6.005629377188826E-02  -6.051998773695240E-02
  -6.095542076133238E-02  -6.136077272838734E-02  -6.173417939091053E-02
  -6.207373451602095E-02  -6.237749237369854E-02  -6.264347059172548E-02
  -6.286965340027381E-02  -6.305399528976599E-02  -6.319442510589605E-02
  -6.328885060583274E-02  -6.333516349960031E-02  -6.333124500043008E-02
  -6.327497190747494E-02  -6.316422324364802E-02  -6.299688747046621E-02
  -6.277087030061253E-02  -6.248410312745532E-02  -6.213455208893663E-02
  -6.172022778104176E-02  -6.123919563344336E-02  -6.068958695684459E-02
  -6.006961066799051E-02  -5.937756569422892E-02  -5.861185405485462E-02
  -5.777099461121290E-02  -5.685363747163861E-02  -5.585857903073058E-02
  -5.478477761516001E-02  -5.363136970017210E-02  -5.239768665211268E-02
  -5.108327194268292E-02  -4.968789877018037E-02  -4.821158801168946E-02
  -4.665462641806530E-02  -4.501758495059079E-02  -4.330133714440709E-02
  -4.150707736926375E-02  -3.963633884282296E-02  -3.769101123579204E-02
  -3.567335769159026E-02  -3.358603106621899E-02  -3.143208917663301E-02
  -2.921500882833509E-02  -2.693869837538721E-02  -2.460750854871966E-02
  -2.222624127183160E-02  -1.980015616701532E-02  -1.733497444041590E-02
  -1.483687982101968E-02  -1.231251621741774E-02  -9.768981747461394E-03
  -7.213818790246740E-03  -4.654999707790954E-03  -2.100907886008564E-03
   4.396862482228155E-04   2.957654564213298E-03   5.443546229731117E-03
   7.887628662630441E-03   1.027993468123011E-02   1.261031605905659E-02
   1.486850363590723E-02   1.704417407290519E-02   1.912702326345932E-02
   2.110684632409391E-02   2.297362398837242E-02   2.471761511303401E-02
   2.632945487771290E-02   2.780025811803416E-02   2.912172707660385E-02
   3.028626268788349E-02   3.128707833190741E-02   3.211831479952795E-02
   3.277515501003638E-02   3.325393681289167E-02   3.355226199180457E-02
   3.366909937515486E-02   3.360487974606759E-02   3.336158004361786E-02
   3.294279415969371E-02   3.235378747103623E-02   3.160153211090123E-02
   3.069471988860442E-02   2.964374971785010E-02   2.846068642703336E-02
   2.715918790828045E-02   2.575439772920472E-02   2.426280059500518E-02
   2.270203842169530E-02   2.109068527690865E-02   1.944798007533500E-02
   1.779351669294784E-02   1.614689209766983E-02   1.452731419168717E-02
   1.295317232688274E-02   1.144157489045994E-02   1.000785995856007E-02
   8.665086771214150E-03   7.423517674918050E-03   6.290102183665214E-03
   5.267976890009463E-03   4.355997068544983E-03   3.548317897008518E-03
   2.834045204149680E-03   2.201496256050262E-03   1.652435180148987E-03
   1.189873377602430E-03   8.137020963424890E-04   5.207258992336317E-04
   3.047989719867084E-04   1.570712803489749E-04   6.634956552425963E-05
   1.957570972405120E-05   2.422074506569505E-06   0.000000000000000E+00
   0.000000000000000E+00   0.000000000000000E+00   0.000000000000000E+00
   0.000000000000000E+00   0.000000000000000E+00   0.000000000000000E+00
   0.000000000000000E+00   0.000000000000000E+00   0.000000000000000E+00
   0.000000000000000E+00   0.000000000000000E+00   0.000000000000000E+00
   0.000000000000000E+00   0.000000000000000E+00   0.000000000000000E+00
   0.000000000000000E+00   0.000000000000000E+00   0.000000000000000E+00
   0.000000000000000E+00   0.000000000000000E+00   0.000000000000000E+00
   0.000000000000000E+00   0.000000000000000E+00   0.000000000000000E+00
   0.000000000000000E+00   0.000000000000000E+00   0.000000000000000E+00
   0.000000000000000E+00   0.000000000000000E+00   0.000000000000000E+00
   0.000000000000000E+00   0.000000000000000E+00   0.000000000000000E+00
   0.000000000000000E+00   0.000000000000000E+00   0.000000000000000E+00
   0.000000000000000E+00   0.000000000000000E+00   0.000000000000000E+00
   0.000000000000000E+00   0.000000000000000E+00   0.000000000000000E+00
   0.000000000000000E+00   0.000000000000000E+00   0.000000000000000E+00
   0.000000000000000E+00   0.000000000000000E+00   0.000000000000000E+00
   0.000000000000000E+00   0.000000000000000E+00   0.000000000000000E+00
   0.000000000000000E+00   0.000000000000000E+00   0.000000000000000E+00
   0.000000000000000E+00   0.000000000000000E+00   0.000000000000000E+00
   0.000000000000000E+00   0.000000000000000E+00   0.000000000000000E+00
   0.000000000000000E+00   0.000000000000000E+00   0.000000000000000E+00
   0.000000000000000E+00   0.000000000000000E+00   0.000000000000000E+00
   0.000000000000000E+00   0.000000000000000E+00   0.000000000000000E+00
   0.000000000000000E+00   0.000000000000000E+00   0.000000000000000E+00
   0.000000000000000E+00   0.000000000000000E+00   0.000000000000000E+00
   0.000000000000000E+00   0.000000000000000E+00   0.000000000000000E+00
   0.000000000000000E+00   0.000000000000000E+00   0.000000000000000E+00
   0.000000000000000E+00   0.000000000000000E+00   0.000000000000000E+00
   0.000000000000000E+00   0.000000000000000E+00   0.000000000000000E+00
   0.000000000000000E+00   0.000000000000000E+00   0.000000000000000E+00
   0.000000000000000E+00   0.000000000000000E+00   0.000000000000000E+00
   0.000000000000000E+00   0.000000000000000E+00   0.000000000000000E+00
   0.000000000000000E+00   0.000000000000000E+00   0.000000000000000E+00
   0.000000000000000E+00   0.000000000000000E+00   0.000000000000000E+00
   0.000000000000000E+00   0.000000000000000E+00   0.000000000000000E+00
   0.000000000000000E+00   0.000000000000000E+00   0.000000000000000E+00
   0.000000000000000E+00   0.000000000000000E+00   0.000000000000000E+00
   0.000000000000000E+00   0.000000000000000E+00   0.000000000000000E+00
   0.000000000000000E+00   0.000000000000000E+00   0.000000000000000E+00
   0.000000000000000E+00   0.000000000000000E+00   0.000000000000000E+00
   0.000000000000000E+00   0.000000000000000E+00   0.000000000000000E+00
   0.000000000000000E+00   0.000000000000000E+00   0.000000000000000E+00
   0.000000000000000E+00   0.000000000000000E+00   0.000000000000000E+00
   0.000000000000000E+00   0.000000000000000E+00   0.000000000000000E+00
   0.000000000000000E+00   0.000000000000000E+00   0.000000000000000E+00
   0.000000000000000E+00   0.000000000000000E+00   0.000000000000000E+00
   0.000000000000000E+00   0.000000000000000E+00   0.000000000000000E+00
   0.000000000000000E+00   0.000000000000000E+00   0.000000000000000E+00
   0.000000000000000E+00   0.000000000000000E+00   0.000000000000000E+00
   0.000000000000000E+00   0.000000000000000E+00   0.000000000000000E+00
   0.000000000000000E+00   0.000000000000000E+00   0.000000000000000E+00
   0.000000000000000E+00   0.000000000000000E+00   0.000000000000000E+00
   0.000000000000000E+00   0.000000000000000E+00   0.000000000000000E+00
   0.000000000000000E+00   0.000000000000000E+00   0.000000000000000E+00
   0.000000000000000E+00   0.000000000000000E+00   0.000000000000000E+00
   0.000000000000000E+00   0.000000000000000E+00   0.000000000000000E+00
   0.000000000000000E+00   0.000000000000000E+00   0.000000000000000E+00
   0.000000000000000E+00   0.000000000000000E+00   0.000000000000000E+00
   0.000000000000000E+00   0.000000000000000E+00   0.000000000000000E+00
   0.000000000000000E+00   0.000000000000000E+00   0.000000000000000E+00
   0.000000000000000E+00   0.000000000000000E+00   0.000000000000000E+00
   0.000000000000000E+00   0.000000000000000E+00   0.000000000000000E+00
   0.000000000000000E+00   0.000000000000000E+00   0.000000000000000E+00
   0.000000000000000E+00   0.000000000000000E+00   0.000000000000000E+00
   0.000000000000000E+00   0.000000000000000E+00   0.000000000000000E+00
   0.000000000000000E+00   0.000000000000000E+00   0.000000000000000E+00
   0.000000000000000E+00   0.000000000000000E+00   0.000000000000000E+00
   0.000000000000000E+00   0.000000000000000E+00   0.000000000000000E+00
   0.000000000000000E+00   0.000000000000000E+00   0.000000000000000E+00
   0.000000000000000E+00   0.000000000000000E+00   0.000000000000000E+00
   0.000000000000000E+00   0.000000000000000E+00   0.000000000000000E+00
   0.000000000000000E+00   0.000000000000000E+00   0.000000000000000E+00
   0.000000000000000E+00   0.000000000000000E+00   0.000000000000000E+00
   0.000000000000000E+00   0.000000000000000E+00   0.000000000000000E+00
   0.000000000000000E+00   0.000000000000000E+00   0.000000000000000E+00
   0.000000000000000E+00   0.000000000000000E+00   0.000000000000000E+00
   0.000000000000000E+00   0.000000000000000E+00   0.000000000000000E+00
   0.000000000000000E+00   0.000000000000000E+00   0.000000000000000E+00
   0.000000000000000E+00   0.000000000000000E+00   0.000000000000000E+00
   0.000000000000000E+00   0.000000000000000E+00   0.000000000000000E+00
   0.000000000000000E+00   0.000000000000000E+00   0.000000000000000E+00
   0.000000000000000E+00   0.000000000000000E+00   0.000000000000000E+00
   0.000000000000000E+00   0.000000000000000E+00   0.000000000000000E+00
   0.000000000000000E+00   0.000000000000000E+00   0.000000000000000E+00
   0.000000000000000E+00   0.000000000000000E+00   0.000000000000000E+00
   0.000000000000000E+00   0.000000000000000E+00   0.000000000000000E+00
   0.000000000000000E+00   0.000000000000000E+00   0.000000000000000E+00
   0.000000000000000E+00   0.000000000000000E+00   0.000000000000000E+00
   0.000000000000000E+00   0.000000000000000E+00   0.000000000000000E+00
   0.000000000000000E+00   0.000000000000000E+00   0.000000000000000E+00
   0.000000000000000E+00   0.000000000000000E+00   0.000000000000000E+00
   0.000000000000000E+00   0.000000000000000E+00   0.000000000000000E+00
   0.000000000000000E+00   0.000000000000000E+00   0.000000000000000E+00
   0.000000000000000E+00   0.000000000000000E+00   0.000000000000000E+00
   0.000000000000000E+00   0.000000000000000E+00   0.000000000000000E+00
   0.000000000000000E+00   0.000000000000000E+00   0.000000000000000E+00
   0.000000000000000E+00   0.000000000000000E+00   0.000000000000000E+00
   0.000000000000000E+00   0.000000000000000E+00   0.000000000000000E+00
   0.000000000000000E+00   0.000000000000000E+00   0.000000000000000E+00
   0.000000000000000E+00   0.000000000000000E+00   0.000000000000000E+00
   0.000000000000000E+00   0.000000000000000E+00   0.000000000000000E+00
   0.000000000000000E+00   0.000000000000000E+00   0.000000000000000E+00
   0.000000000000000E+00   0.000000000000000E+00   0.000000000000000E+00
   0.000000000000000E+00
      </PP_QIJL.1.2.0>
      <PP_QIJL.1.3.1 first_index="1" second_index="3" composite_index="4" angular_momentum="1" size="1135">
  -2.905969514750304E-16  -3.017012311961474E-16  -3.132298269675380E-16
  -3.251989527107012E-16  -3.376254419107536E-16  -3.505267712909657E-16
  -3.639210853920272E-16  -3.778272220904851E-16  -3.922647390923159E-16
  -4.072539414387187E-16  -4.228159100631712E-16  -4.389725314394531E-16
  -4.557465283627407E-16  -4.731614919068603E-16  -4.912419146025539E-16
  -5.100132248836769E-16  -5.295018228495960E-16  -5.497351173940250E-16
  -5.707415647527576E-16  -5.925507085241773E-16  -6.151932212192814E-16
  -6.387009473989549E-16  -6.631069484600784E-16  -6.884455491325421E-16
  -7.147523857533176E-16  -7.420644563847602E-16  -7.704201728483665E-16
  -7.998594147466507E-16  -8.304235855490093E-16  -8.621556708213436E-16
  -8.951002986798790E-16  -9.293038025557149E-16  -9.648142863571216E-16
  -1.001681692122137E-15  -1.039957870256093E-15  -1.079696652453032E-15
  -1.120953927403281E-15  -1.163787719394393E-15  -1.208258269914906E-15
  -1.254428122376843E-15  -1.302362210074993E-15  -1.352127947507565E-15
  -1.403795325186165E-15  -1.457437008068446E-15  -1.513128437752046E-15
  -1.570947938573603E-15  -1.630976827761330E-15  -1.693299529797100E-15
  -1.758003695148543E-15  -1.825180323537139E-15  -1.894923891917601E-15
  -1.967332487345889E-15  -2.042507944926237E-15  -2.120555991026697E-15
  -2.201586391969899E-15  -2.285713108402278E-15  -2.373054455564358E-15
  -2.463733269683599E-15  -2.557877080725349E-15  -2.655618291745026E-15
  -2.757094365093118E-15  -2.862448015735428E-15  -2.971827411959237E-15
  -3.085386383749352E-15  -3.203284639126034E-15  -3.325687988748360E-15
  -3.452768579101157E-15  -3.584705134590980E-15  -3.721683208891594E-15
  -3.863895445895569E-15  -4.011541850635019E-15  -4.164830070554160E-15
  -4.323975687530976E-15  -4.489202521053603E-15  -4.660742942984063E-15
  -4.838838204347263E-15  -5.023738774606412E-15  -5.215704693903123E-15
  -5.415005938753742E-15  -5.621922801722014E-15  -5.836746285594881E-15
  -6.059778512623327E-15  -6.291333149395435E-15  -6.531735847947718E-15
  -6.781324703727123E-15  -7.040450731053073E-15  -7.309478356745976E-15
  -7.588785932615501E-15  -7.878766267531178E-15  -8.179827179821622E-15
  -8.492392070782225E-15  -8.816900520091208E-15  -9.153808903977080E-15
  -9.503591037009114E-15  -9.866738838403447E-15  -1.024376302378639E-14
  -1.063519382339541E-14  -1.104158172771420E-14  -1.146349826159819E-14
  -1.190153678797870E-14  -1.235631334227186E-14  -1.282846749866817E-14
  -1.331866326952275E-14  -1.382759003910518E-14  -1.435596353302403E-14
  -1.490452682469425E-14  -1.547405138025248E-14  -1.606533814339716E-14
  -1.667921866167629E-14  -1.731655625580279E-14  -1.797824723364882E-14
  -1.866522215061849E-14  -1.937844711817078E-14  -2.011892516234097E-14
  -2.088769763415986E-14  -2.168584567395860E-14  -2.251449173161472E-14
  -2.337480114488105E-14  -2.426798377801511E-14  -2.519529572300493E-14
  -2.615804106578906E-14  -2.715757371996049E-14  -2.819529933050870E-14
  -2.927267725030877E-14  -3.039122259210363E-14  -3.155250835888388E-14
  -3.275816765565207E-14  -3.400989598568372E-14  -3.530945363450142E-14
  -3.665866814493455E-14  -3.805943688671143E-14  -3.951372972423227E-14
  -4.102359178624214E-14  -4.259114634130460E-14  -4.421859778312808E-14
  -4.590823472991950E-14  -4.766243324215728E-14  -4.948366016323941E-14
  -5.137447658778305E-14  -5.333754146239269E-14  -5.537561532394049E-14
  -5.749156418071961E-14  -5.968836354175561E-14  -6.196910260009309E-14
  -6.433698857585419E-14  -6.679535122515407E-14  -6.934764752130418E-14
  -7.199746651474397E-14  -7.474853437867053E-14  -7.760471964732788E-14
  -8.057003865439633E-14  -8.364866117910928E-14  -8.684491630797328E-14
  -9.016329852041014E-14  -9.360847400681576E-14  -9.718528722788102E-14
  -1.008987677244774E-13  -1.047541371875938E-13  -1.087568167982690E-13
  -1.129124348478634E-13  -1.172268346493281E-13  -1.217060827505778E-13
  -1.263564774615747E-13  -1.311845577069961E-13  -1.361971122169577E-13
  -1.414011890687146E-13  -1.468041055927758E-13  -1.524134586571201E-13
  -1.582371353443478E-13  -1.642833240362822E-13  -1.705605259220131E-13
  -1.770775669452352E-13  -1.838436102077725E-13  -1.908681688467320E-13
  -1.981611194032062E-13  -2.057327157014847E-13  -2.135936032581467E-13
  -2.217548342411595E-13  -2.302278830001406E-13  -2.390246621895482E-13
  -2.481575395072529E-13  -2.576393550721715E-13  -2.674834394652498E-13
  -2.777036324591008E-13  -2.883143024624901E-13  -2.993303667071851E-13
  -3.107673122051957E-13  -3.226412175058606E-13  -3.349687752835132E-13
  -3.477673157870048E-13  -3.610548311843091E-13  -3.748500008361594E-13
  -3.891722175341531E-13  -4.040416147400678E-13  -4.194790948647949E-13
  -4.355063586261685E-13  -4.521459355269779E-13  -4.694212154960410E-13
  -4.873564817363227E-13  -5.059769448264175E-13  -5.253087781229889E-13
  -5.453791545137475E-13  -5.662162845724946E-13  -5.878494561696226E-13
  -6.103090755936086E-13  -6.336267102408111E-13  -6.578351329337388E-13
  -6.829683679293019E-13  -7.090617386820169E-13  -7.361519174282631E-13
  -7.642769766617577E-13  -7.934764425716208E-13  -8.237913505180570E-13
  -8.552643026231002E-13  -8.879395275573404E-13  -9.218629426052504E-13
  -9.570822180973077E-13  -9.936468442973439E-13  -1.031608200839885E-12
  -1.071019628813838E-12  -1.111936505593434E-12  -1.154416322520726E-12
  -1.198518765548100E-12  -1.244305798953989E-12  -1.291841752247768E-12
  -1.341193410385656E-12  -1.392430107423363E-12  -1.445623823735941E-12
  -1.500849286940799E-12  -1.558184076664344E-12  -1.617708733298235E-12
  -1.679506870897263E-12  -1.743665294375564E-12  -1.810274121164597E-12
  -1.879426907502760E-12  -1.951220779532538E-12  -2.025756569385843E-12
  -2.103138956450499E-12  -2.183476614010639E-12  -2.266882361467516E-12
  -2.353473322351178E-12  -2.443371088342948E-12  -2.536701889537675E-12
  -2.633596771179557E-12  -2.734191777120878E-12  -2.838628140254492E-12
  -2.947052480187294E-12  -3.059617008427438E-12  -3.176479741370006E-12
  -3.297804721376952E-12  -3.423762246257368E-12  -3.554529107466608E-12
  -3.690288837352272E-12  -3.831231965792374E-12  -3.977556286578100E-12
  -4.129467133910562E-12  -4.287177669394991E-12  -4.450909179927082E-12
  -4.620891386882929E-12  -4.797362767044208E-12  -4.980570885692343E-12
  -5.170772742340626E-12  -5.368235129575515E-12  -5.573235005502353E-12
  -5.786059880310132E-12  -6.007008217485421E-12  -6.236389850230077E-12
  -6.474526413649262E-12  -6.721751793315670E-12  -6.978412590809667E-12
  -7.244868606890381E-12  -7.521493342947989E-12  -7.808674521433300E-12
  -8.106814625970810E-12  -8.416331461901367E-12  -8.737658738013378E-12
  -9.071246670266786E-12  -9.417562608325508E-12  -9.777091685759972E-12
  -1.015033749480315E-11  -1.053782278658274E-11  -1.094009019777760E-11
  -1.135770300469195E-11  -1.179124590577361E-11  -1.224132583363051E-11
  -1.270857279765562E-11  -1.319364075840190E-11  -1.369720853488368E-11
  -1.421998074604277E-11  -1.476268878764485E-11  -1.532609184592069E-11
  -1.591097794933512E-11  -1.651816505988359E-11  -1.714850220538927E-11
  -1.780287065433486E-11  -1.848218513478602E-11  -1.918739509905104E-11
  -1.991948603577876E-11  -2.067948083123104E-11  -2.146844118156010E-11
  -2.228746905797325E-11  -2.313770822672651E-11  -2.402034582598893E-11
  -2.493661400164060E-11  -2.588779160420521E-11  -2.687520594914163E-11
  -2.790023464282319E-11  -2.896430747662623E-11  -3.006890839161263E-11
  -3.121557751637530E-11  -3.240591328075307E-11  -3.364157460816205E-11
  -3.492428318939685E-11  -3.625582584089894E-11  -3.763805695054690E-11
  -3.907290101412389E-11  -4.056235526580824E-11  -4.210849240600915E-11
  -4.371346343014238E-11  -4.537950056194261E-11  -4.710892029509420E-11
  -4.890412654706078E-11  -5.076761392918083E-11  -5.270197113713958E-11
  -5.470988446617477E-11  -5.679414145544497E-11  -5.895763466616054E-11
  -6.120336559824737E-11  -6.353444875046206E-11  -6.595411582901736E-11
  -6.846572010998548E-11  -7.107274096090640E-11  -7.377878852717877E-11
  -7.658760858901717E-11  -7.950308759498426E-11  -8.252925787821818E-11
  -8.567030306169723E-11  -8.893056365919891E-11  -9.231454287861048E-11
  -9.582691263465851E-11  -9.947251977820923E-11  -1.032563925496008E-10
  -1.071837472636853E-10  -1.112599952343613E-10  -1.154907499468683E-10
  -1.198818344861416E-10  -1.244392892298746E-10  -1.291693798150974E-10
  -1.340786053875646E-10  -1.391737071431872E-10  -1.444616771713250E-10
  -1.499497676097234E-10  -1.556455001215519E-10  -1.615566757047469E-10
  -1.676913848447801E-10  -1.740580180216226E-10  -1.806652765825575E-10
  -1.875221839922334E-10  -1.946380974722203E-10  -2.020227200420235E-10
  -2.096861129744081E-10  -2.176387086776388E-10  -2.258913240180278E-10
  -2.344551740960584E-10  -2.433418864900485E-10  -2.525635159811233E-10
  -2.621325597743212E-10  -2.720619732298056E-10  -2.823651861197896E-10
  -2.930561194258878E-10  -3.041492026925211E-10  -3.156593919521695E-10
  -3.276021882383158E-10  -3.399936567021454E-10  -3.528504463498631E-10
  -3.661898104166216E-10  -3.800296273944057E-10  -3.943884227302961E-10
  -4.092853912125648E-10  -4.247404200616201E-10  -4.407741127428095E-10
  -4.574078135189863E-10  -4.746636327590269E-10  -4.925644730206755E-10
  -5.111340559239542E-10  -5.303969498325443E-10  -5.503785983595022E-10
  -5.711053497102009E-10  -5.926044869165756E-10  -6.149042588332625E-10
  -6.380339122092038E-10  -6.620237244887206E-10  -6.869050376088561E-10
  -7.127102927234905E-10  -7.394730658339015E-10  -7.672281044347976E-10
  -7.960113650754647E-10  -8.258600519141120E-10  -8.568126561962773E-10
  -8.889089968142988E-10  -9.221902618076544E-10  -9.566990508299640E-10
  -9.924794186311221E-10  -1.029576919522319E-09  -1.068038652868298E-09
  -1.107913309425941E-09  -1.149251218787806E-09  -1.192104397727796E-09
  -1.236526599392225E-09  -1.282573363450097E-09  -1.330302067212630E-09
  -1.379771977358277E-09  -1.431044302765398E-09  -1.484182247727346E-09
  -1.539251066209821E-09  -1.596318116644641E-09  -1.655452917074071E-09
  -1.716727201172287E-09  -1.780214974376081E-09  -1.845992570482460E-09
  -1.914138708446390E-09  -1.984734549138940E-09  -2.057863752369799E-09
  -2.133612533284009E-09  -2.212069718933407E-09  -2.293326803900968E-09
  -2.377478005456966E-09  -2.464620317754948E-09  -2.554853564831647E-09
  -2.648280452334647E-09  -2.745006617395259E-09  -2.845140676787691E-09
  -2.948794272591696E-09  -3.056082115164509E-09  -3.167122023477725E-09
  -3.282034961541035E-09  -3.400945071135975E-09  -3.523979700230811E-09
  -3.651269426501213E-09  -3.782948075079516E-09  -3.919152730575386E-09
  -4.060023741992420E-09  -4.205704720499291E-09  -4.356342528457013E-09
  -4.512087259774449E-09  -4.673092209946693E-09  -4.839513835141468E-09
  -5.011511699264653E-09  -5.189248407672121E-09  -5.372889526695568E-09
  -5.562603487094949E-09  -5.758561470612393E-09  -5.960937277654852E-09
  -6.169907174710010E-09  -6.385649719697517E-09  -6.608345563201480E-09
  -6.838177223838387E-09  -7.075328835331479E-09  -7.319985863128255E-09
  -7.572334787906399E-09  -7.832562753153441E-09  -8.100857174995536E-09
  -8.377405308427020E-09  -8.662393771177836E-09  -8.956008016404189E-09
  -9.258431754481830E-09  -9.569846318743338E-09  -9.890429968015311E-09
  -1.022035712665257E-08  -1.055979755198693E-08  -1.090891542661748E-08
  -1.126786836921776E-08  -1.163680635743554E-08  -1.201587055625905E-08
  -1.240519204535085E-08  -1.280489043771006E-08  -1.321507238135517E-08
  -1.363582993527411E-08  -1.406723881095184E-08  -1.450935647008770E-08
  -1.496222006730738E-08  -1.542584422547597E-08  -1.590021863422214E-08
  -1.638530545890585E-08  -1.688103654237513E-08  -1.738731038945681E-08
  -1.790398891727690E-08  -1.843089395299449E-08  -1.896780346453483E-08
  -1.951444750110086E-08  -2.007050382833286E-08  -2.063559323113465E-08
  -2.120927446670952E-08  -2.179103883803856E-08  -2.238030436497094E-08
  -2.297640952439715E-08  -2.357860652785037E-08  -2.418605410785370E-08
  -2.479780977496416E-08  -2.541282151327193E-08  -2.602991887454177E-08
  -2.664780342689927E-08  -2.726503851832673E-08  -2.788003830582377E-08
  -2.849105600147000E-08  -2.909617127925157E-08  -2.969327679062105E-08
  -3.028006372404180E-08  -3.085400634559221E-08  -3.141234545402451E-08
  -3.195207067128786E-08  -3.246990149743882E-08  -3.296226704179850E-08
  -3.342528434194402E-08  -3.385473517940796E-08  -3.424604128919829E-08
  -3.459423785309073E-08  -3.489394516887447E-08  -3.513933836741501E-08
  -3.532411505178571E-08  -3.544146071967366E-08  -3.548401181966663E-08
  -3.544381628844884E-08  -3.531229139836565E-08  -3.508017874080038E-08
  -3.473749615312103E-08  -3.427348639152954E-08  -3.367656233029001E-08
  -3.293424846330232E-08  -3.203311846230204E-08  -3.095872853597238E-08
  -2.969554630712022E-08  -2.822687492559681E-08  -2.653477209258495E-08
  -2.459996367583543E-08  -2.240175155166757E-08  -1.991791530214204E-08
  -1.712460736991731E-08  -1.399624123848595E-08  -1.050537218607339E-08
  -6.622570133337803E-09  -2.316284067479889E-09   2.447302499487738E-09
   7.704425623875560E-09   1.349390519113063E-08   1.985731999914258E-08
   2.683919436867870E-08   3.448719702288798E-08   4.285235302318107E-08
   5.198926961114827E-08   6.195637684345735E-08   7.281618397596016E-08
   8.463555260713226E-08   9.748598765510334E-08   1.114439473177836E-07
   1.265911732232201E-07   1.430150420673928E-07   1.608089401180010E-07
   1.800726620328661E-07   2.009128355519099E-07   2.234433737180306E-07
   2.477859563628442E-07   2.740705427351642E-07   3.024359172441263E-07
   3.330302704183656E-07   3.660118173184145E-07   4.015494557671584E-07
   4.398234669294380E-07   4.810262609061060E-07   5.253631701930889E-07
   5.730532940169888E-07   6.243303967561639E-07   6.794438638535612E-07
   7.386597188216101E-07   8.022617051906504E-07   8.705524374577687E-07
   9.438546253673629E-07   1.022512376096254E-06   1.106892579223978E-06
   1.197386379635896E-06   1.294410743851872E-06   1.398410125569589E-06
   1.509858236611988E-06   1.629259929792284E-06   1.757153200636900E-06
   1.894111315321373E-06   2.040745072599077E-06   2.197705207995819E-06
   2.365684949013993E-06   2.545422730630377E-06   2.737705080929078E-06
   2.943369687258957E-06   3.163308653987795E-06   3.398471963510507E-06
   3.649871152907751E-06   3.918583219354916E-06   4.205754768158310E-06
   4.512606418113912E-06   4.840437479718482E-06   5.190630922696245E-06
   5.564658650241772E-06   5.964087098377893E-06   6.390583179897655E-06
   6.845920593486241E-06   7.331986519757582E-06   7.850788727222722E-06
   8.404463112478484E-06   8.995281700285255E-06   9.625661130659310E-06
   1.029817166157948E-05   1.101554671756701E-05   1.178069301599547E-05
   1.259670130480532E-05   1.346685774711179E-05   1.439465599013102E-05
   1.538380995788586E-05   1.643826740926679E-05   1.756222430525779E-05
   1.876014003146254E-05   2.003675352448919E-05   2.139710035332600E-05
   2.284653080945485E-05   2.439072906228304E-05   2.603573343929909E-05
   2.778795789343453E-05   2.965421472321701E-05   3.164173861457386E-05
   3.375821207655076E-05   3.601179234670948E-05   3.841113984564821E-05
   4.096544826385237E-05   4.368447636800992E-05   4.657858161795706E-05
   4.965875568960687E-05   5.293666200350069E-05   5.642467536303862E-05
   6.013592381099765E-05   6.408433281755678E-05   6.828467191785875E-05
   7.275260392190861E-05   7.750473682459455E-05   8.255867854861610E-05
   8.793309465809787E-05   9.364776918585691E-05   9.972366872231962E-05
   1.061830099192590E-04   1.130493305665653E-04   1.203475644053207E-04
   1.281041198453310E-04   1.363469627601523E-04   1.451057035371677E-04
   1.544116885648262E-04   1.642980963431524E-04   1.748000384075861E-04
   1.859546652595314E-04   1.978012775000237E-04   2.103814423653132E-04
   2.237391158649590E-04   2.379207707240987E-04   2.529755303317736E-04
   2.689553088965103E-04   2.859149580085676E-04   3.039124198052588E-04
   3.230088869314370E-04   3.432689694813642E-04   3.647608691005953E-04
   3.875565604171303E-04   4.117319799594281E-04   4.373672227051665E-04
   4.645467463880349E-04   4.933595836706744E-04   5.238995622696033E-04
   5.562655330919493E-04   5.905616064146280E-04   6.268973961027057E-04
   6.653882718259015E-04   7.061556191892255E-04   7.493271076455164E-04
   7.950369660040578E-04   8.434262652891023E-04   8.946432086357346E-04
   9.488434278365817E-04   1.006190286070927E-03   1.066855186258383E-03
   1.131017884379863E-03   1.198866807000460E-03   1.270599372110157E-03
   1.346422312268628E-03   1.426551998899567E-03   1.511214766426332E-03
   1.600647234774554E-03   1.695096628587351E-03   1.794821091303966E-03
   1.900089992043535E-03   2.011184223009602E-03   2.128396484889277E-03
   2.252031557461745E-03   2.382406552353183E-03   2.519851144580491E-03
   2.664707779211062E-03   2.817331849132816E-03   2.978091839575599E-03
   3.147369434651691E-03   3.325559580791760E-03   3.513070501539544E-03
   3.710323657738380E-03   3.917753646693342E-03   4.135808033425091E-03
   4.364947106649821E-03   4.605643551620925E-03   4.858382031458598E-03
   5.123658668074077E-03   5.401980413266790E-03   5.693864300044906E-03
   5.999836563688506E-03   6.320431621553155E-03   6.656190900100814E-03
   7.007661497151119E-03   7.375394666882668E-03   7.759944114680316E-03
   8.161864088540022E-03   8.581707253412542E-03   9.020022334603264E-03
   9.477351516168027E-03   9.954227580158553E-03   1.045117077260364E-02
   1.096868538227470E-02   1.150725601859676E-02   1.206734357555817E-02
   1.264938086915439E-02   1.325376793681199E-02   1.388086698839777E-02
   1.453099699985182E-02   1.520442794223372E-02   1.590137464105412E-02
   1.662199026322855E-02   1.736635943186181E-02   1.813449097238429E-02
   1.892631029736437E-02   1.974165144163011E-02   2.058024876420506E-02
   2.144172833901949E-02   2.232559906243093E-02   2.323124351232262E-02
   2.415790860094906E-02   2.510469607180657E-02   2.607055289962900E-02
   2.705426166214718E-02   2.805443096252178E-02   2.906948599232521E-02
   3.009765933660399E-02   3.113698213484523E-02   3.218527572453322E-02
   3.324014390735326E-02   3.429896599184409E-02   3.535889078031294E-02
   3.641683168192764E-02   3.746946314788932E-02   3.851321863825484E-02
   3.954429034301043E-02   4.055863089211569E-02   4.155195730004938E-02
   4.251975739948710E-02   4.345729902567487E-02   4.435964221728382E-02
   4.522165470049616E-02   4.603803092013392E-02   4.680331487412171E-02
   4.751192699475859E-02   4.815819530136121E-02   4.873639102305150E-02
   4.924076885692612E-02   4.966561198473817E-02   5.000528191967110E-02
   5.025427319297088E-02   5.040727281734264E-02   5.045922437939758E-02
   5.040539651646163E-02   5.024145542327556E-02   4.996354091126926E-02
   4.956834540716928E-02   4.905319512898321E-02   4.841613251654758E-02
   4.765599882190083E-02   4.677251558333569E-02   4.576636351822973E-02
   4.463925717646946E-02   4.339401350197433E-02   4.203461225882368E-02
   4.056624609597985E-02   3.899535785666139E-02   3.732966259214812E-02
   3.557815162320262E-02   3.375107591441494E-02   3.185990599758348E-02
   2.991726571053391E-02   2.793683711916153E-02   2.593323417503456E-02
   2.392184294106864E-02   2.191862660599320E-02   1.993989401651324E-02
   1.800203109534300E-02   1.612119529311683E-02   1.431297414991610E-02
   1.259201012207322E-02   1.097159506236629E-02   9.463239122229064E-03
   8.076220362640486E-03   6.817122998425800E-03   5.689373933092351E-03
   4.692789033051521E-03   3.823142395969405E-03   3.071773631691206E-03
   2.425249827711475E-03   1.868458271576445E-03   1.395926573585837E-03
   1.004159610352273E-03   6.886043472700276E-04   4.436248592228353E-04
   2.624824267417059E-04   1.373211137291053E-04   5.915944574669263E-05
   1.788897569893200E-05   2.280652122654825E-06  -1.110223024625157E-16
   0.000000000000000E+00   0.000000000000000E+00   0.000000000000000E+00
   0.000000000000000E+00   0.000000000000000E+00   0.000000000000000E+00
   0.000000000000000E+00   0.000000000000000E+00   0.000000000000000E+00
   0.000000000000000E+00   0.000000000000000E+00   0.000000000000000E+00
   0.000000000000000E+00   0.000000000000000E+00   0.000000000000000E+00
   0.000000000000000E+00   0.000000000000000E+00   0.000000000000000E+00
   0.000000000000000E+00   0.000000000000000E+00   0.000000000000000E+00
   0.000000000000000E+00   0.000000000000000E+00   0.000000000000000E+00
   0.000000000000000E+00   0.000000000000000E+00   0.000000000000000E+00
   0.000000000000000E+00   0.000000000000000E+00   0.000000000000000E+00
   0.000000000000000E+00   0.000000000000000E+00   0.000000000000000E+00
   0.000000000000000E+00   0.000000000000000E+00   0.000000000000000E+00
   0.000000000000000E+00   0.000000000000000E+00   0.000000000000000E+00
   0.000000000000000E+00   0.000000000000000E+00   0.000000000000000E+00
   0.000000000000000E+00   0.000000000000000E+00   0.000000000000000E+00
   0.000000000000000E+00   0.000000000000000E+00   0.000000000000000E+00
   0.000000000000000E+00   0.000000000000000E+00   0.000000000000000E+00
   0.000000000000000E+00   0.000000000000000E+00   0.000000000000000E+00
   0.000000000000000E+00   0.000000000000000E+00   0.000000000000000E+00
   0.000000000000000E+00   0.000000000000000E+00   0.000000000000000E+00
   0.000000000000000E+00   0.000000000000000E+00   0.000000000000000E+00
   0.000000000000000E+00   0.000000000000000E+00   0.000000000000000E+00
   0.000000000000000E+00   0.000000000000000E+00   0.000000000000000E+00
   0.000000000000000E+00   0.000000000000000E+00   0.000000000000000E+00
   0.000000000000000E+00   0.000000000000000E+00   0.000000000000000E+00
   0.000000000000000E+00   0.000000000000000E+00   0.000000000000000E+00
   0.000000000000000E+00   0.000000000000000E+00   0.000000000000000E+00
   0.000000000000000E+00   0.000000000000000E+00   0.000000000000000E+00
   0.000000000000000E+00   0.000000000000000E+00   0.000000000000000E+00
   0.000000000000000E+00   0.000000000000000E+00   0.000000000000000E+00
   0.000000000000000E+00   0.000000000000000E+00   0.000000000000000E+00
   0.000000000000000E+00   0.000000000000000E+00   0.000000000000000E+00
   0.000000000000000E+00   0.000000000000000E+00   0.000000000000000E+00
   0.000000000000000E+00   0.000000000000000E+00   0.000000000000000E+00
   0.000000000000000E+00   0.000000000000000E+00   0.000000000000000E+00
   0.000000000000000E+00   0.000000000000000E+00   0.000000000000000E+00
   0.000000000000000E+00   0.000000000000000E+00   0.000000000000000E+00
   0.000000000000000E+00   0.000000000000000E+00   0.000000000000000E+00
   0.000000000000000E+00   0.000000000000000E+00   0.000000000000000E+00
   0.000000000000000E+00   0.000000000000000E+00   0.000000000000000E+00
   0.000000000000000E+00   0.000000000000000E+00   0.000000000000000E+00
   0.000000000000000E+00   0.000000000000000E+00   0.000000000000000E+00
   0.000000000000000E+00   0.000000000000000E+00   0.000000000000000E+00
   0.000000000000000E+00   0.000000000000000E+00   0.000000000000000E+00
   0.000000000000000E+00   0.000000000000000E+00   0.000000000000000E+00
   0.000000000000000E+00   0.000000000000000E+00   0.000000000000000E+00
   0.000000000000000E+00   0.000000000000000E+00   0.000000000000000E+00
   0.000000000000000E+00   0.000000000000000E+00   0.000000000000000E+00
   0.000000000000000E+00   0.000000000000000E+00   0.000000000000000E+00
   0.000000000000000E+00   0.000000000000000E+00   0.000000000000000E+00
   0.000000000000000E+00   0.000000000000000E+00   0.000000000000000E+00
   0.000000000000000E+00   0.000000000000000E+00   0.000000000000000E+00
   0.000000000000000E+00   0.000000000000000E+00   0.000000000000000E+00
   0.000000000000000E+00   0.000000000000000E+00   0.000000000000000E+00
   0.000000000000000E+00   0.000000000000000E+00   0.000000000000000E+00
   0.000000000000000E+00   0.000000000000000E+00   0.000000000000000E+00
   0.000000000000000E+00   0.000000000000000E+00   0.000000000000000E+00
   0.000000000000000E+00   0.000000000000000E+00   0.000000000000000E+00
   0.000000000000000E+00   0.000000000000000E+00   0.000000000000000E+00
   0.000000000000000E+00   0.000000000000000E+00   0.000000000000000E+00
   0.000000000000000E+00   0.000000000000000E+00   0.000000000000000E+00
   0.000000000000000E+00   0.000000000000000E+00   0.000000000000000E+00
   0.000000000000000E+00   0.000000000000000E+00   0.000000000000000E+00
   0.000000000000000E+00   0.000000000000000E+00   0.000000000000000E+00
   0.000000000000000E+00   0.000000000000000E+00   0.000000000000000E+00
   0.000000000000000E+00   0.000000000000000E+00   0.000000000000000E+00
   0.000000000000000E+00   0.000000000000000E+00   0.000000000000000E+00
   0.000000000000000E+00   0.000000000000000E+00   0.000000000000000E+00
   0.000000000000000E+00   0.000000000000000E+00   0.000000000000000E+00
   0.000000000000000E+00   0.000000000000000E+00   0.000000000000000E+00
   0.000000000000000E+00   0.000000000000000E+00   0.000000000000000E+00
   0.000000000000000E+00   0.000000000000000E+00   0.000000000000000E+00
   0.000000000000000E+00   0.000000000000000E+00   0.000000000000000E+00
   0.000000000000000E+00   0.000000000000000E+00   0.000000000000000E+00
   0.000000000000000E+00   0.000000000000000E+00   0.000000000000000E+00
   0.000000000000000E+00   0.000000000000000E+00   0.000000000000000E+00
   0.000000000000000E+00   0.000000000000000E+00   0.000000000000000E+00
   0.000000000000000E+00   0.000000000000000E+00   0.000000000000000E+00
   0.000000000000000E+00   0.000000000000000E+00   0.000000000000000E+00
   0.000000000000000E+00   0.000000000000000E+00   0.000000000000000E+00
   0.000000000000000E+00   0.000000000000000E+00   0.000000000000000E+00
   0.000000000000000E+00   0.000000000000000E+00   0.000000000000000E+00
   0.000000000000000E+00   0.000000000000000E+00   0.000000000000000E+00
   0.000000000000000E+00   0.000000000000000E+00   0.000000000000000E+00
   0.000000000000000E+00   0.000000000000000E+00   0.000000000000000E+00
   0.000000000000000E+00   0.000000000000000E+00   0.000000000000000E+00
   0.000000000000000E+00   0.000000000000000E+00   0.000000000000000E+00
   0.000000000000000E+00   0.000000000000000E+00   0.000000000000000E+00
   0.000000000000000E+00   0.000000000000000E+00   0.000000000000000E+00
   0.000000000000000E+00   0.000000000000000E+00   0.000000000000000E+00
   0.000000000000000E+00   0.000000000000000E+00   0.000000000000000E+00
   0.000000000000000E+00   0.000000000000000E+00   0.000000000000000E+00
   0.000000000000000E+00   0.000000000000000E+00   0.000000000000000E+00
   0.000000000000000E+00   0.000000000000000E+00   0.000000000000000E+00
   0.000000000000000E+00   0.000000000000000E+00   0.000000000000000E+00
   0.000000000000000E+00   0.000000000000000E+00   0.000000000000000E+00
   0.000000000000000E+00   0.000000000000000E+00   0.000000000000000E+00
   0.000000000000000E+00   0.000000000000000E+00   0.000000000000000E+00
   0.000000000000000E+00   0.000000000000000E+00   0.000000000000000E+00
   0.000000000000000E+00   0.000000000000000E+00   0.000000000000000E+00
   0.000000000000000E+00   0.000000000000000E+00   0.000000000000000E+00
   0.000000000000000E+00   0.000000000000000E+00   0.000000000000000E+00
   0.000000000000000E+00   0.000000000000000E+00   0.000000000000000E+00
   0.000000000000000E+00
      </PP_QIJL.1.3.1>
      <PP_QIJL.1.4.1 first_index="1" second_index="4" composite_index="7" angular_momentum="1" size="1135">
   3.479356374775016E-13   3.612309529539321E-13   3.750343089809053E-13
   3.893651188020907E-13   4.042435374799482E-13   4.196904902420971E-13
   4.357277019108684E-13   4.523777274574123E-13   4.696639837233383E-13
   4.876107823545122E-13   5.062433639933023E-13   5.255879337773936E-13
   5.456716981950783E-13   5.665229033488556E-13   5.881708746811739E-13
   6.106460582181490E-13   6.339800633893116E-13   6.582057074835682E-13
   6.833570618039133E-13   7.094694995858200E-13   7.365797457466611E-13
   7.647259285361795E-13   7.939476331606131E-13   8.242859574559069E-13
   8.557835696883170E-13   8.884847685636707E-13   9.224355455297236E-13
   9.576836494592001E-13   9.942786538045006E-13   1.032272026318541E-12
   1.071717201439731E-12   1.112669655442969E-12   1.155186984462261E-12
   1.199328985494782E-12   1.245157740500236E-12   1.292737703713824E-12
   1.342135792295620E-12   1.393421480443839E-12   1.446666897104359E-12
   1.501946927413925E-12   1.559339318019676E-12   1.618924786423173E-12
   1.680787134502656E-12   1.745013366373221E-12   1.811693810750682E-12
   1.880922247991160E-12   1.952796041985153E-12   2.027416277091509E-12
   2.104887900303935E-12   2.185319868849974E-12   2.268825303430004E-12
   2.355521647311832E-12   2.445530831504603E-12   2.538979446244320E-12
   2.635998919032198E-12   2.736725699476158E-12   2.841301451195542E-12
   2.949873251058852E-12   3.062593796034774E-12   3.179621617947399E-12
   3.301121306437627E-12   3.427263740444405E-12   3.558226328531325E-12
   3.694193258396541E-12   3.835355755917021E-12   3.981912354091298E-12
   4.134069172259140E-12   4.292040205990722E-12   4.456047628053031E-12
   4.626322100876841E-12   4.803103100963577E-12   4.986639255688502E-12
   5.177188692973769E-12   5.375019404323168E-12   5.580409621729239E-12
   5.793648208982573E-12   6.015035067933985E-12   6.244881560280683E-12
   6.483510945469751E-12   6.731258835334789E-12   6.988473666105062E-12
   7.255517188451133E-12   7.532764976256067E-12   7.820606954827738E-12
   8.119447949295336E-12   8.429708253960935E-12   8.751824223407324E-12
   9.086248886193136E-12   9.433452581998462E-12   9.793923623117182E-12
   1.016816898122600E-11   1.055671500039645E-11   1.096010813735246E-11
   1.137891573001456E-11   1.181372679541183E-11   1.226515285808328E-11
   1.273382881013454E-11   1.322041380415862E-11   1.372559218027711E-11
   1.425007442860557E-11   1.479459818849617E-11   1.535992928596379E-11
   1.594686281075407E-11   1.655622423456818E-11   1.718887057201751E-11
   1.784569158594021E-11   1.852761103877567E-11   1.923558799175619E-11
   1.997061815374352E-11   2.073373528160693E-11   2.152601263411243E-11
   2.234856448136799E-11   2.320254767194769E-11   2.408916325989853E-11
   2.500965819391870E-11   2.596532707108205E-11   2.695751395757631E-11
   2.798761427901511E-11   2.905707678298226E-11   3.016740557656918E-11
   3.132016224176980E-11   3.251696803170956E-11   3.375950615079606E-11
   3.504952412199892E-11   3.638883624458814E-11   3.777932614578670E-11
   3.922294942992750E-11   4.072173642883927E-11   4.227779505733009E-11
   4.389331377778481E-11   4.557056467804447E-11   4.731190666689839E-11
   4.911978879168165E-11   5.099675368264436E-11   5.294544112893741E-11
   5.496859179124221E-11   5.706905105626831E-11   5.924977303853835E-11
   6.151382473508845E-11   6.386439033892853E-11   6.630477571732667E-11
   6.883841306121878E-11   7.146886571227992E-11   7.419983317444749E-11
   7.703515631694492E-11   7.997882277612093E-11   8.303497256370503E-11
   8.620790388936419E-11   8.950207920575008E-11   9.292213148454022E-11
   9.647287073229611E-11   1.001592907553068E-10   1.039865761829280E-10
   1.079601097592974E-10   1.120854799136798E-10   1.163684886200869E-10
   1.208151595572316E-10   1.254317465802858E-10   1.302247425163616E-10
   1.352008882960841E-10   1.403671824340959E-10   1.457308908718327E-10
   1.512995571964065E-10   1.570810132499716E-10   1.630833901444967E-10
   1.693151296974236E-10   1.757849963043147E-10   1.825020892651641E-10
   1.894758555817270E-10   1.967161032438571E-10   2.042330150235316E-10
   2.120371627959838E-10   2.201395224080573E-10   2.285514891147158E-10
   2.372848936054087E-10   2.463520186428228E-10   2.557656163374472E-10
   2.655389260822111E-10   2.756856931724472E-10   2.862201881373558E-10
   2.971572268101461E-10   3.085121911651116E-10   3.203010509509064E-10
   3.325403861504780E-10   3.452474102992322E-10   3.584399946942117E-10
   3.721366935283703E-10   3.863567699852485E-10   4.011202233307813E-10
   4.164478170403327E-10   4.323611080004924E-10   4.488824768267504E-10
   4.660351593396282E-10   4.838432792435868E-10   5.023318820546434E-10
   5.215269703244018E-10   5.414555402100794E-10   5.621456194419009E-10
   5.836263067413066E-10   6.059278127453922E-10   6.290815024951121E-10
   6.531199395470622E-10   6.780769317708011E-10   7.039875788961818E-10
   7.308883218775390E-10   7.588169941441284E-10   7.878128748089672E-10
   8.179167439108183E-10   8.491709397670756E-10   8.816194185181922E-10
   9.153078159473478E-10   9.502835116623943E-10   9.865956957302233E-10
   1.024295437857362E-09   1.063435759214053E-09   1.104071707002795E-09
   1.146260431876305E-09   1.190061268313670E-09   1.235535818067804E-09
   1.282748036801542E-09   1.331764324034182E-09   1.382653616525041E-09
   1.435487485225270E-09   1.490340235934335E-09   1.547289013802717E-09
   1.606413911827730E-09   1.667798083495175E-09   1.731527859725068E-09
   1.797692870286050E-09   1.866386169849185E-09   1.937704368858325E-09
   2.011747769401293E-09   2.088620506272728E-09   2.168430693427135E-09
   2.251290576028081E-09   2.337316688307217E-09   2.426630017455401E-09
   2.519356173776096E-09   2.615625567340563E-09   2.715573591393195E-09
   2.819340812764822E-09   2.927073169562020E-09   3.038922176410103E-09
   3.155045137538710E-09   3.275605368009491E-09   3.400772423397048E-09
   3.530722338246139E-09   3.665637873640439E-09   3.805708774231063E-09
   3.951132035086288E-09   4.102112178737667E-09   4.258861542812272E-09
   4.421600578655403E-09   4.590558161363816E-09   4.765971911665408E-09
   4.948088530097985E-09   5.137164143957115E-09   5.333464667500839E-09
   5.537266175917945E-09   5.748855293585542E-09   5.968529597161936E-09
   6.196598034081770E-09   6.433381357041709E-09   6.679212575087870E-09
   6.934437421939192E-09   7.199414842205265E-09   7.474517496182524E-09
   7.760132283938390E-09   8.056660889420549E-09   8.364520345356381E-09
   8.684143619736792E-09   9.015980224709433E-09   9.360496848737095E-09
   9.718178012910564E-09   1.008952675233870E-08   1.047506532357364E-08
   1.087533593906628E-08   1.129090152968437E-08   1.172234653636568E-08
   1.217027773201935E-08   1.263532507483085E-08   1.311814259417091E-08
   1.361940931035346E-08   1.413983018953624E-08   1.468013713510682E-08
   1.524109001694741E-08   1.582347774002655E-08   1.642811935381911E-08
   1.705586520411557E-08   1.770759812883926E-08   1.838423469955309E-08
   1.908672651040177E-08   1.981606151630098E-08   2.057326542225572E-08
   2.135940312576088E-08   2.217558021431163E-08   2.302294452012995E-08
   2.390268773429214E-08   2.481604708252738E-08   2.576430706504322E-08
   2.674880126282362E-08   2.777091421293974E-08   2.883208335550903E-08
   2.993380105504072E-08   3.107761669900888E-08   3.226513887660298E-08
   3.349803764072004E-08   3.477804685637674E-08   3.610696663884428E-08
   3.748666588493275E-08   3.891908490098306E-08   4.040623813126197E-08
   4.195021699059383E-08   4.355319280521252E-08   4.521741986596674E-08
   4.694523859817001E-08   4.873907885255255E-08   5.060146332193893E-08
   5.253501108845586E-08   5.454244130625524E-08   5.662657702492814E-08
   5.879034915898544E-08   6.103680060898235E-08   6.336909054008075E-08
   6.579049882406165E-08   6.830443065103246E-08   7.091442131730712E-08
   7.362414119619266E-08   7.643740089866443E-08   7.935815663118421E-08
   8.239051575819101E-08   8.553874257707926E-08   8.880726431378373E-08
   9.220067734739281E-08   9.572375367253893E-08   9.938144760864793E-08
   1.031789027654709E-07   1.071214592746917E-07   1.112146612977665E-07
   1.154642648205468E-07   1.198762457456379E-07   1.244568082938582E-07
   1.292123937266103E-07   1.341496894014120E-07   1.392756381733117E-07
   1.445974481553961E-07   1.501226028520993E-07   1.558588716795512E-07
   1.618143208877428E-07   1.679973248998471E-07   1.744165780846302E-07
   1.810811069784778E-07   1.880002829742146E-07   1.951838354945303E-07
   2.026418656685151E-07   2.103848605305164E-07   2.184237077612479E-07
   2.267697109918615E-07   2.354346056924665E-07   2.444305756674085E-07
   2.537702701804713E-07   2.634668217340391E-07   2.735338645271934E-07
   2.839855536186482E-07   2.948365848214304E-07   3.061022153572374E-07
   3.177982852994533E-07   3.299412398349422E-07   3.425481523758459E-07
   3.556367485538393E-07   3.692254311305145E-07   3.833333058588423E-07
   3.979802083320240E-07   4.131867318573910E-07   4.289742563944710E-07
   4.453649785978293E-07   4.623819430068163E-07   4.800490744260036E-07
   4.983912115417108E-07   5.174341418217915E-07   5.372046377476282E-07
   5.577304944291389E-07   5.790405686555748E-07   6.011648194368494E-07
   6.241343500922565E-07   6.479814519455916E-07   6.727396496879449E-07
   6.984437484717476E-07   7.251298828020180E-07   7.528355672937074E-07
   7.815997493654870E-07   8.114628639447789E-07   8.424668902600638E-07
   8.746554108003338E-07   9.080736725236993E-07   9.427686504022928E-07
   9.787891133906135E-07   1.016185692911339E-06   1.055010953953402E-06
   1.095319468882718E-06   1.137167894068185E-06   1.180615049430838E-06
   1.225722001027206E-06   1.272552146782304E-06   1.321171305492859E-06
   1.371647809224472E-06   1.424052599232905E-06   1.478459325542751E-06
   1.534944450323574E-06   1.593587355207880E-06   1.654470452700326E-06
   1.717679301835363E-06   1.783302728243201E-06   1.851432948793861E-06
   1.922165700991628E-06   1.995600377302279E-06   2.071840164599459E-06
   2.150992188926737E-06   2.233167665774418E-06   2.318482056085922E-06
   2.407055228205523E-06   2.499011625997858E-06   2.594480443374040E-06
   2.693595805462679E-06   2.796496956686865E-06   2.903328456000943E-06
   3.014240379564954E-06   3.129388531138416E-06   3.248934660482940E-06
   3.373046690085575E-06   3.501898950508615E-06   3.635672424704782E-06
   3.774555001627051E-06   3.918741739496867E-06   4.068435139087474E-06
   4.223845427408913E-06   4.385190852189141E-06   4.552697987554517E-06
   4.726602051344868E-06   4.907147234493099E-06   5.094587042937918E-06
   5.289184652532922E-06   5.491213277456675E-06   5.700956552625951E-06
   5.918708930648334E-06   6.144776093862086E-06   6.379475382034464E-06
   6.623136236315973E-06   6.876100660056492E-06   7.138723697132320E-06
   7.411373928440213E-06   7.694433987242318E-06   7.988301094087129E-06
   8.293387612031131E-06   8.610121622940903E-06   8.938947525663480E-06
   9.280326656897867E-06   9.634737935619494E-06   1.000267853194862E-05
   1.038466456138670E-05   1.078123180537432E-05   1.119293645916737E-05
   1.162035590805822E-05   1.206408953301042E-05   1.252475954681647E-05
   1.300301186192765E-05   1.349951699114644E-05   1.401497098241901E-05
   1.455009638901614E-05   1.510564327642031E-05   1.568239026731055E-05
   1.628114562607035E-05   1.690274838430570E-05   1.754806950891038E-05
   1.821801311427222E-05   1.891351772028377E-05   1.963555755786587E-05
   2.038514392378503E-05   2.116332658661753E-05   2.197119524576543E-05
   2.280988104551176E-05   2.368055814617094E-05   2.458444535447836E-05
   2.552280781540729E-05   2.649695876773125E-05   2.750826136569242E-05
   2.855813056924231E-05   2.964803510541520E-05   3.077949950347168E-05
   3.195410620656726E-05   3.317349776277488E-05   3.443937909842982E-05
   3.575351987682218E-05   3.711775694543643E-05   3.853399687498933E-05
   4.000421859367585E-05   4.153047612015602E-05   4.311490139890525E-05
   4.475970724173657E-05   4.646719037939283E-05   4.823973462726719E-05
   5.007981416946617E-05   5.198999696555389E-05   5.397294828449240E-05
   5.603143437044923E-05   5.816832624530141E-05   6.038660365284687E-05
   6.268935914990754E-05   6.507980234968768E-05   6.756126432295198E-05
   7.013720216276806E-05   7.281120371877352E-05   7.558699250712680E-05
   7.846843280253099E-05   8.145953491891093E-05   8.456446068560229E-05
   8.778752912609036E-05   9.113322234664131E-05   9.460619164236209E-05
   9.821126382852653E-05   1.019534478052644E-04   1.058379413639724E-04
   1.098701382440957E-04   1.140556354492484E-04   1.184002408318910E-04
   1.229099809561543E-04   1.275911092486723E-04   1.324501144476318E-04
   1.374937293606144E-04   1.427289399420927E-04   1.481629947018756E-04
   1.538034144561007E-04   1.596580024328150E-04   1.657348547444961E-04
   1.720423712403645E-04   1.785892667516541E-04   1.853845827435011E-04
   1.924376993874965E-04   1.997583480694334E-04   2.073566243471858E-04
   2.152430013741744E-04   2.234283438043231E-04   2.319239221948898E-04
   2.407414279240764E-04   2.498929886408425E-04   2.593911842648260E-04
   2.692490635548487E-04   2.794801612650224E-04   2.900985159079939E-04
   3.011186881454941E-04   3.125557798268508E-04   3.244254536967915E-04
   3.367439537944001E-04   3.495281265657198E-04   3.627954427131017E-04
   3.765640198050331E-04   3.908526456707771E-04   4.056808026048058E-04
   4.210686924066905E-04   4.370372622826694E-04   4.536082316358486E-04
   4.708041197726169E-04   4.886482745534604E-04   5.071649020171285E-04
   5.263790970076334E-04   5.463168748343095E-04   5.670052039957690E-04
   5.884720399992093E-04   6.107463603072299E-04   6.338582004448639E-04
   6.578386913001626E-04   6.827200976523265E-04   7.085358579618168E-04
   7.353206254575816E-04   7.631103105569664E-04   7.919421246543961E-04
   8.218546253153926E-04   8.528877629129157E-04   8.850829287434171E-04
   9.184830046602699E-04   9.531324142626524E-04   9.890771756780495E-04
   1.026364955976767E-03   1.065045127257024E-03   1.105168824439022E-03
   1.146789004806522E-03   1.189960509334136E-03   1.234740125838369E-03
   1.281186653990053E-03   1.329360972225292E-03   1.379326106591406E-03
   1.431147301563658E-03   1.484892092867471E-03   1.540630382339936E-03
   1.598434514862949E-03   1.658379357398974E-03   1.720542380158673E-03
   1.785003739927682E-03   1.851846365577820E-03   1.921156045785351E-03
   1.993021518976419E-03   2.067534565516648E-03   2.144790102158489E-03
   2.224886278756471E-03   2.307924577256070E-03   2.394009912957719E-03
   2.483250738052562E-03   2.575759147420894E-03   2.671650986678936E-03
   2.771045962452613E-03   2.874067754850578E-03   2.980844132100943E-03
   3.091507067307997E-03   3.206192857276749E-03   3.325042243343069E-03
   3.448200534137454E-03   3.575817730198987E-03   3.708048650344332E-03
   3.845053059683870E-03   3.986995799162996E-03   4.134046916492249E-03
   4.286381798313818E-03   4.444181303435071E-03   4.607631896941791E-03
   4.776925784984217E-03   4.952261050008477E-03   5.133841786183815E-03
   5.321878234752440E-03   5.516586919004147E-03   5.718190778550663E-03
   5.926919302546785E-03   6.143008661475205E-03   6.366701837079668E-03
   6.598248749997883E-03   6.837906384609139E-03   7.085938910573930E-03
   7.342617800502878E-03   7.608221943149263E-03   7.883037751475634E-03
   8.167359264896749E-03   8.461488244952024E-03   8.765734263608192E-03
   9.080414783337062E-03   9.405855228057015E-03   9.742389043963925E-03
   1.009035774921523E-02   1.045011097136379E-02   1.082200647136717E-02
   1.120641015292703E-02   1.160369605583522E-02   1.201424633192469E-02
   1.243845120214141E-02   1.287670889316517E-02   1.332942555192118E-02
   1.379701513622875E-02   1.427989927973948E-02   1.477850712921885E-02
   1.529327515212048E-02   1.582464691230142E-02   1.637307281161494E-02
   1.693900979500945E-02   1.752292101664925E-02   1.812527546445518E-02
   1.874654754035014E-02   1.938721659337193E-02   2.004776640269873E-02
   2.072868460751214E-02   2.143046208049943E-02   2.215359224168091E-02
   2.289857030912493E-02   2.366589248299864E-02   2.445605505928885E-02
   2.526955346941286E-02   2.610688124183906E-02   2.696852888173130E-02
   2.785498266454233E-02   2.876672333939743E-02   2.970422473803148E-02
   3.066795228498814E-02   3.165836140473374E-02   3.267589582131250E-02
   3.372098574615456E-02   3.479404594965038E-02   3.589547371214294E-02
   3.702564665003649E-02   3.818492041281027E-02   3.937362624684304E-02
   4.059206842210099E-02   4.184052151794254E-02   4.311922756452001E-02
   4.442839303654730E-02   4.576818569653739E-02   4.713873128500001E-02
   4.854011005555314E-02   4.997235315341247E-02   5.143543883632386E-02
   5.292928853767358E-02   5.445376277226181E-02   5.600865688607982E-02
   5.759369665236345E-02   5.920853371724681E-02   6.085274089949525E-02
   6.252580735005903E-02   6.422713357859366E-02   6.595602635560355E-02
   6.771169350052916E-02   6.949323856789806E-02   7.129965544559788E-02
   7.312982288144057E-02   7.498249895643264E-02   7.685631552559105E-02
   7.874977264973121E-02   8.066123304439372E-02   8.258891657501291E-02
   8.453089483050366E-02   8.648508581070793E-02   8.844924876655942E-02
   9.042097923539037E-02   9.239770431754013E-02   9.437667824426892E-02
   9.635497829096856E-02   9.832950109374552E-02   1.002969594316052E-01
   1.022538795407008E-01   1.041965990313346E-01   1.061212654826403E-01
   1.080238357940419E-01   1.099000763766464E-01   1.117455642716466E-01
   1.135556892864807E-01   1.153256572428940E-01   1.170504944340716E-01
   1.187250533905607E-01   1.203440200567273E-01   1.219019224808288E-01
   1.233931411223741E-01   1.248119208801305E-01   1.261523849427855E-01
   1.274085505617819E-01   1.285743468420010E-01   1.296436346406826E-01
   1.306102286580207E-01   1.314679217941215E-01   1.322105118362715E-01
   1.328318305275528E-01   1.333257750525930E-01   1.336863419584647E-01
   1.339076635082860E-01   1.339840464417606E-01   1.339100130905821E-01
   1.336803447671955E-01   1.332901273127398E-01   1.327347986540459E-01
   1.320101981802682E-01   1.311126177071418E-01   1.300388537510177E-01
   1.287862607858951E-01   1.273528051048588E-01   1.257371188529201E-01
   1.239385537416910E-01   1.219572338980592E-01   1.197941072397470E-01
   1.174509947110888E-01   1.149306366534367E-01   1.122367355274296E-01
   1.093739941501138E-01   1.063481485600321E-01   1.031659945795086E-01
   9.983540710715078E-02   9.636535114713807E-02   9.276588356716078E-02
   8.904814457634135E-02   8.522433793042505E-02   8.130769890659928E-02
   7.731244914710023E-02   7.325373755190107E-02   6.914756650898127E-02
   6.501070288837746E-02   6.086057339583106E-02   5.671514408544030E-02
   5.259278406986981E-02   4.851211374261492E-02   4.449183813984994E-02
   4.055056641916659E-02   3.670661881753884E-02   3.297782286836061E-02
   2.938130110335038E-02   2.593325293358585E-02   2.264873388732937E-02
   1.954143587090883E-02   1.662347260068788E-02   1.390517481483167E-02
   1.139490029616423E-02   9.098864102531171E-03   7.020994686719541E-03
   5.162821769673774E-03   3.523401881917528E-03   2.099287380248560E-03
   8.845444502302777E-04  -1.291749104812348E-04  -9.525026972132186E-04
  -1.598163302211110E-03  -2.080718671188517E-03  -2.416250031881055E-03
  -2.621978015402628E-03  -2.715825332682789E-03  -2.715928842422118E-03
  -2.640110831992115E-03  -2.505322589307149E-03  -2.327076812306157E-03
  -2.118889000379209E-03  -1.891751589860755E-03  -1.653668096133355E-03
  -1.409277740307757E-03  -1.162032788729075E-03  -9.220083178515248E-04
  -6.995792259925637E-04  -5.029079372625977E-04  -3.377352609798268E-04
  -2.072264439919591E-04  -1.118808434040219E-04  -4.951307358197488E-05
  -1.531266225501815E-05  -1.988135249153533E-06   0.000000000000000E+00
   0.000000000000000E+00   0.000000000000000E+00   0.000000000000000E+00
   0.000000000000000E+00   0.000000000000000E+00   0.000000000000000E+00
   0.000000000000000E+00   0.000000000000000E+00   0.000000000000000E+00
   0.000000000000000E+00   0.000000000000000E+00   0.000000000000000E+00
   0.000000000000000E+00   0.000000000000000E+00   0.000000000000000E+00
   0.000000000000000E+00   0.000000000000000E+00   0.000000000000000E+00
   0.000000000000000E+00   0.000000000000000E+00   0.000000000000000E+00
   0.000000000000000E+00   0.000000000000000E+00   0.000000000000000E+00
   0.000000000000000E+00   0.000000000000000E+00   0.000000000000000E+00
   0.000000000000000E+00   0.000000000000000E+00   0.000000000000000E+00
   0.000000000000000E+00   0.000000000000000E+00   0.000000000000000E+00
   0.000000000000000E+00   0.000000000000000E+00   0.000000000000000E+00
   0.000000000000000E+00   0.000000000000000E+00   0.000000000000000E+00
   0.000000000000000E+00   0.000000000000000E+00   0.000000000000000E+00
   0.000000000000000E+00   0.000000000000000E+00   0.000000000000000E+00
   0.000000000000000E+00   0.000000000000000E+00   0.000000000000000E+00
   0.000000000000000E+00   0.000000000000000E+00   0.000000000000000E+00
   0.000000000000000E+00   0.000000000000000E+00   0.000000000000000E+00
   0.000000000000000E+00   0.000000000000000E+00   0.000000000000000E+00
   0.000000000000000E+00   0.000000000000000E+00   0.000000000000000E+00
   0.000000000000000E+00   0.000000000000000E+00   0.000000000000000E+00
   0.000000000000000E+00   0.000000000000000E+00   0.000000000000000E+00
   0.000000000000000E+00   0.000000000000000E+00   0.000000000000000E+00
   0.000000000000000E+00   0.000000000000000E+00   0.000000000000000E+00
   0.000000000000000E+00   0.000000000000000E+00   0.000000000000000E+00
   0.000000000000000E+00   0.000000000000000E+00   0.000000000000000E+00
   0.000000000000000E+00   0.000000000000000E+00   0.000000000000000E+00
   0.000000000000000E+00   0.000000000000000E+00   0.000000000000000E+00
   0.000000000000000E+00   0.000000000000000E+00   0.000000000000000E+00
   0.000000000000000E+00   0.000000000000000E+00   0.000000000000000E+00
   0.000000000000000E+00   0.000000000000000E+00   0.000000000000000E+00
   0.000000000000000E+00   0.000000000000000E+00   0.000000000000000E+00
   0.000000000000000E+00   0.000000000000000E+00   0.000000000000000E+00
   0.000000000000000E+00   0.000000000000000E+00   0.000000000000000E+00
   0.000000000000000E+00   0.000000000000000E+00   0.000000000000000E+00
   0.000000000000000E+00   0.000000000000000E+00   0.000000000000000E+00
   0.000000000000000E+00   0.000000000000000E+00   0.000000000000000E+00
   0.000000000000000E+00   0.000000000000000E+00   0.000000000000000E+00
   0.000000000000000E+00   0.000000000000000E+00   0.000000000000000E+00
   0.000000000000000E+00   0.000000000000000E+00   0.000000000000000E+00
   0.000000000000000E+00   0.000000000000000E+00   0.000000000000000E+00
   0.000000000000000E+00   0.000000000000000E+00   0.000000000000000E+00
   0.000000000000000E+00   0.000000000000000E+00   0.000000000000000E+00
   0.000000000000000E+00   0.000000000000000E+00   0.000000000000000E+00
   0.000000000000000E+00   0.000000000000000E+00   0.000000000000000E+00
   0.000000000000000E+00   0.000000000000000E+00   0.000000000000000E+00
   0.000000000000000E+00   0.000000000000000E+00   0.000000000000000E+00
   0.000000000000000E+00   0.000000000000000E+00   0.000000000000000E+00
   0.000000000000000E+00   0.000000000000000E+00   0.000000000000000E+00
   0.000000000000000E+00   0.000000000000000E+00   0.000000000000000E+00
   0.000000000000000E+00   0.000000000000000E+00   0.000000000000000E+00
   0.000000000000000E+00   0.000000000000000E+00   0.000000000000000E+00
   0.000000000000000E+00   0.000000000000000E+00   0.000000000000000E+00
   0.000000000000000E+00   0.000000000000000E+00   0.000000000000000E+00
   0.000000000000000E+00   0.000000000000000E+00   0.000000000000000E+00
   0.000000000000000E+00   0.000000000000000E+00   0.000000000000000E+00
   0.000000000000000E+00   0.000000000000000E+00   0.000000000000000E+00
   0.000000000000000E+00   0.000000000000000E+00   0.000000000000000E+00
   0.000000000000000E+00   0.000000000000000E+00   0.000000000000000E+00
   0.000000000000000E+00   0.000000000000000E+00   0.000000000000000E+00
   0.000000000000000E+00   0.000000000000000E+00   0.000000000000000E+00
   0.000000000000000E+00   0.000000000000000E+00   0.000000000000000E+00
   0.000000000000000E+00   0.000000000000000E+00   0.000000000000000E+00
   0.000000000000000E+00   0.000000000000000E+00   0.000000000000000E+00
   0.000000000000000E+00   0.000000000000000E+00   0.000000000000000E+00
   0.000000000000000E+00   0.000000000000000E+00   0.000000000000000E+00
   0.000000000000000E+00   0.000000000000000E+00   0.000000000000000E+00
   0.000000000000000E+00   0.000000000000000E+00   0.000000000000000E+00
   0.000000000000000E+00   0.000000000000000E+00   0.000000000000000E+00
   0.000000000000000E+00   0.000000000000000E+00   0.000000000000000E+00
   0.000000000000000E+00   0.000000000000000E+00   0.000000000000000E+00
   0.000000000000000E+00   0.000000000000000E+00   0.000000000000000E+00
   0.000000000000000E+00   0.000000000000000E+00   0.000000000000000E+00
   0.000000000000000E+00   0.000000000000000E+00   0.000000000000000E+00
   0.000000000000000E+00   0.000000000000000E+00   0.000000000000000E+00
   0.000000000000000E+00   0.000000000000000E+00   0.000000000000000E+00
   0.000000000000000E+00   0.000000000000000E+00   0.000000000000000E+00
   0.000000000000000E+00   0.000000000000000E+00   0.000000000000000E+00
   0.000000000000000E+00   0.000000000000000E+00   0.000000000000000E+00
   0.000000000000000E+00   0.000000000000000E+00   0.000000000000000E+00
   0.000000000000000E+00   0.000000000000000E+00   0.000000000000000E+00
   0.000000000000000E+00   0.000000000000000E+00   0.000000000000000E+00
   0.000000000000000E+00   0.000000000000000E+00   0.000000000000000E+00
   0.000000000000000E+00   0.000000000000000E+00   0.000000000000000E+00
   0.000000000000000E+00   0.000000000000000E+00   0.000000000000000E+00
   0.000000000000000E+00   0.000000000000000E+00   0.000000000000000E+00
   0.000000000000000E+00   0.000000000000000E+00   0.000000000000000E+00
   0.000000000000000E+00   0.000000000000000E+00   0.000000000000000E+00
   0.000000000000000E+00   0.000000000000000E+00   0.000000000000000E+00
   0.000000000000000E+00   0.000000000000000E+00   0.000000000000000E+00
   0.000000000000000E+00   0.000000000000000E+00   0.000000000000000E+00
   0.000000000000000E+00   0.000000000000000E+00   0.000000000000000E+00
   0.000000000000000E+00   0.000000000000000E+00   0.000000000000000E+00
   0.000000000000000E+00   0.000000000000000E+00   0.000000000000000E+00
   0.000000000000000E+00   0.000000000000000E+00   0.000000000000000E+00
   0.000000000000000E+00   0.000000000000000E+00   0.000000000000000E+00
   0.000000000000000E+00   0.000000000000000E+00   0.000000000000000E+00
   0.000000000000000E+00   0.000000000000000E+00   0.000000000000000E+00
   0.000000000000000E+00   0.000000000000000E+00   0.000000000000000E+00
   0.000000000000000E+00   0.000000000000000E+00   0.000000000000000E+00
   0.000000000000000E+00   0.000000000000000E+00   0.000000000000000E+00
   0.000000000000000E+00   0.000000000000000E+00   0.000000000000000E+00
   0.000000000000000E+00   0.000000000000000E+00   0.000000000000000E+00
   0.000000000000000E+00
      </PP_QIJL.1.4.1>
      <PP_QIJL.2.2.0 first_index="2" second_index="2" composite_index="3" angular_momentum="0" size="1135">
   1.465563792152360E-09   1.502664715886910E-09   1.540704853961985E-09
   1.579707982701023E-09   1.619698480327921E-09   1.660701342204204E-09
   1.702742196451943E-09   1.745847319972162E-09   1.790043654868748E-09
   1.835358825288152E-09   1.881821154685362E-09   1.929459683526983E-09
   1.978304187442474E-09   2.028385195834875E-09   2.079734010962690E-09
   2.132382727504786E-09   2.186364252620624E-09   2.241712326518298E-09
   2.298461543543247E-09   2.356647373800863E-09   2.416306185326430E-09
   2.477475266816337E-09   2.540192850934713E-09   2.604498138210084E-09
   2.670431321536983E-09   2.738033611297779E-09   2.807347261120525E-09
   2.878415594288831E-09   2.951283030820315E-09   3.025995115230567E-09
   3.102598544999915E-09   3.181141199760881E-09   3.261672171224489E-09
   3.344241793864167E-09   3.428901676376439E-09   3.515704733937997E-09
   3.604705221279411E-09   3.695958766596084E-09   3.789522406317662E-09
   3.885454620757674E-09   3.983815370665562E-09   4.084666134704122E-09
   4.188069947875636E-09   4.294091440920772E-09   4.402796880714916E-09
   4.514254211687053E-09   4.628533098287251E-09   4.745704968529183E-09
   4.865843058634925E-09   4.989022458809979E-09   5.115320160177027E-09
   5.244815102897881E-09   5.377588225513616E-09   5.513722515533757E-09
   5.653303061306165E-09   5.796417105199941E-09   5.943154098134737E-09
   6.093605755490443E-09   6.247866114432237E-09   6.406031592686861E-09
   6.568201048806737E-09   6.734475843959770E-09   6.904959905283305E-09
   7.079759790841916E-09   7.258984756229650E-09   7.442746822858188E-09
   7.631160847973871E-09   7.824344596447124E-09   8.022418814379263E-09
   8.225507304572698E-09   8.433737003911575E-09   8.647238062701421E-09
   8.866143926017225E-09   9.090591417110827E-09   9.320720822929908E-09
   9.556675981801678E-09   9.798604373336455E-09   1.004665721060712E-08
   1.030098953466209E-08   1.056176031143090E-08   1.082913253108292E-08
   1.110327330990141E-08   1.138435399473648E-08   1.167255027010230E-08
   1.196804226798552E-08   1.227101468043337E-08   1.258165687499210E-08
   1.290016301306765E-08   1.322673217128263E-08   1.356156846590557E-08
   1.390488118042992E-08   1.425688489638285E-08   1.461779962744547E-08
   1.498785095696825E-08   1.536727017896782E-08   1.575629444269279E-08
   1.615516690084960E-08   1.656413686158054E-08   1.698345994428906E-08
   1.741339823941007E-08   1.785422047222438E-08   1.830620217082061E-08
   1.876962583830863E-08   1.924478112939290E-08   1.973196503141572E-08
   2.023148204998336E-08   2.074364439929159E-08   2.126877219726921E-08
   2.180719366566162E-08   2.235924533517962E-08   2.292527225584136E-08
   2.350562821263928E-08   2.410067594666659E-08   2.471078738184155E-08
   2.533634385737145E-08   2.597773636610106E-08   2.663536579889523E-08
   2.730964319520792E-08   2.800098999999422E-08   2.870983832712650E-08
   2.943663122947843E-08   3.018182297584655E-08   3.094587933488195E-08
   3.172927786620974E-08   3.253250821891833E-08   3.335607243760449E-08
   3.420048527616649E-08   3.506627451954063E-08   3.595398131358249E-08
   3.686416050329948E-08   3.779738097964499E-08   3.875422603509240E-08
   3.973529372820998E-08   4.074119725746515E-08   4.177256534449168E-08
   4.283004262705886E-08   4.391429006198908E-08   4.502598533827515E-08
   4.616582330065547E-08   4.733451638391243E-08   4.853279505816423E-08
   4.976140828543014E-08   5.102112398775305E-08   5.231272952717262E-08
   5.363703219784940E-08   5.499485973064602E-08   5.638706081048272E-08
   5.781450560678933E-08   5.927808631738533E-08   6.077871772612890E-08
   6.231733777468174E-08   6.389490814874890E-08   6.551241487915879E-08
   6.717086895815946E-08   6.887130697131676E-08   7.061479174540790E-08
   7.240241301271736E-08   7.423528809214877E-08   7.611456258757910E-08
   7.804141110389202E-08   8.001703798113621E-08   8.204267804727045E-08
   8.411959738996289E-08   8.624909414792876E-08   8.843249932230151E-08
   9.067117760854077E-08   9.296652824940427E-08   9.531998590950782E-08
   9.773302157202802E-08   1.002071434581035E-07   1.027438979695089E-07
   1.053448706551965E-07   1.080116872023007E-07   1.107460144522327E-07
   1.135495614424970E-07   1.164240804748778E-07   1.193713682106726E-07
   1.223932667936439E-07   1.254916650014031E-07   1.286684994259402E-07
   1.319257556840346E-07   1.352654696583140E-07   1.386897287697222E-07
   1.422006732822046E-07   1.458004976404192E-07   1.494914518413090E-07
   1.532758428404004E-07   1.571560359936954E-07   1.611344565360678E-07
   1.652135910970854E-07   1.693959892551982E-07   1.736842651312797E-07
   1.780810990224978E-07   1.825892390775529E-07   1.872115030143215E-07
   1.919507798809781E-07   1.968100318617048E-07   2.017922961281044E-07
   2.069006867374849E-07   2.121383965791985E-07   2.175086993702442E-07
   2.230149517013972E-07   2.286605951351257E-07   2.344491583566188E-07
   2.403842593792678E-07   2.464696078059698E-07   2.527090071476847E-07
   2.591063572006744E-07   2.656656564839254E-07   2.723910047382721E-07
   2.792866054887772E-07   2.863567686719858E-07   2.936059133296757E-07
   3.010385703708033E-07   3.086593854033645E-07   3.164731216379342E-07
   3.244846628647179E-07   3.326990165059506E-07   3.411213167455711E-07
   3.497568277381197E-07   3.586109468988576E-07   3.676892082771837E-07
   3.769972860154317E-07   3.865409978952289E-07   3.963263089736276E-07
   4.063593353112679E-07   4.166463477949315E-07   4.271937760568393E-07
   4.380082124931690E-07   4.490964163842968E-07   4.604653181193226E-07
   4.721220235275515E-07   4.840738183195990E-07   4.963281726409249E-07
   5.088927457406350E-07   5.217753907584452E-07   5.349841596328456E-07
   5.485273081334778E-07   5.624133010209117E-07   5.766508173370291E-07
   5.912487558293088E-07   6.062162405124358E-07   6.215626263706685E-07
   6.372975052045594E-07   6.534307116256676E-07   6.699723292030097E-07
   6.869326967650951E-07   7.043224148614752E-07   7.221523523878530E-07
   7.404336533788867E-07   7.591777439729295E-07   7.783963395530674E-07
   7.981014520689014E-07   8.183053975436625E-07   8.390208037713455E-07
   8.602606182086636E-07   8.820381160667673E-07   9.043669086077686E-07
   9.272609516512677E-07   9.507345542961905E-07   9.748023878633754E-07
   9.994794950645238E-07   1.024781299403205E-06   1.050723614813825E-06
   1.077322655544556E-06   1.104595046290409E-06   1.132557832582785E-06
   1.161228491441978E-06   1.190624942299308E-06   1.220765558195693E-06
   1.251669177263638E-06   1.283355114499868E-06   1.315843173835881E-06
   1.349153660514035E-06   1.383307393776853E-06   1.418325719877481E-06
   1.454230525419443E-06   1.491044251033998E-06   1.528789905403665E-06
   1.567491079640667E-06   1.607171962029257E-06   1.647857353141168E-06
   1.689572681333595E-06   1.732344018639399E-06   1.776198097059474E-06
   1.821162325267409E-06   1.867264805736936E-06   1.914534352302788E-06
   1.963000508166008E-06   2.012693564354897E-06   2.063644578653141E-06
   2.115885395006963E-06   2.169448663423375E-06   2.224367860371985E-06
   2.280677309703099E-06   2.338412204095135E-06   2.397608627044812E-06
   2.458303575413762E-06   2.520534982545703E-06   2.584341741968584E-06
   2.649763731696470E-06   2.716841839146398E-06   2.785617986685680E-06
   2.856135157825676E-06   2.928437424078341E-06   3.002569972492295E-06
   3.078579133885669E-06   3.156512411793252E-06   3.236418512146099E-06
   3.318347373702063E-06   3.402350199246226E-06   3.488479487580792E-06
   3.576789066324263E-06   3.667334125540490E-06   3.760171252218525E-06
   3.855358465624748E-06   3.952955253549429E-06   4.053022609470205E-06
   4.155623070655776E-06   4.260820757233522E-06   4.368681412245388E-06
   4.479272442717111E-06   4.592662961766289E-06   4.708923831775648E-06
   4.828127708658361E-06   4.950349087243117E-06   5.075664347807044E-06
   5.204151803785767E-06   5.335891750690121E-06   5.470966516260125E-06
   5.609460511887485E-06   5.751460285338569E-06   5.897054574810893E-06
   6.046334364356653E-06   6.199392940707906E-06   6.356325951538867E-06
   6.517231465201452E-06   6.682210031971493E-06   6.851364746843666E-06
   7.024801313914230E-06   7.202628112391823E-06   7.384956264277157E-06
   7.571899703754115E-06   7.763575248335164E-06   7.960102671805540E-06
   8.161604779011623E-06   8.368207482539911E-06   8.580039881334538E-06
   8.797234341302123E-06   9.019926577954164E-06   9.248255741138436E-06
   9.482364501911962E-06   9.722399141609869E-06   9.968509643165294E-06
   1.022084978473726E-05   1.047957723570477E-05   1.074485365508666E-05
   1.101684479244864E-05   1.129572059136007E-05   1.158165529546479E-05
   1.187482755723218E-05   1.217542054945550E-05   1.248362207956744E-05
   1.279962470684336E-05   1.312362586256535E-05   1.345582797322160E-05
   1.379643858681749E-05   1.414567050237714E-05   1.450374190271534E-05
   1.487087649056274E-05   1.524730362812852E-05   1.563325848018688E-05
   1.602898216077674E-05   1.643472188360500E-05   1.685073111624698E-05
   1.727726973823961E-05   1.771460420316495E-05   1.816300770482515E-05
   1.862276034761124E-05   1.909414932117148E-05   1.957746907948756E-05
   2.007302152446910E-05   2.058111619418056E-05   2.110207045581682E-05
   2.163620970354662E-05   2.218386756134662E-05   2.274538609095122E-05
   2.332111600504649E-05   2.391141688584054E-05   2.451665740914475E-05
   2.513721557410451E-05   2.577347893872162E-05   2.642584486131268E-05
   2.709472074805388E-05   2.778052430676366E-05   2.848368380708032E-05
   2.920463834719504E-05   2.994383812730390E-05   3.070174472994832E-05
   3.147883140741588E-05   3.227558337637847E-05   3.309249811994934E-05
   3.393008569734436E-05   3.478886906133817E-05   3.566938438371012E-05
   3.657218138887995E-05   3.749782369593818E-05   3.844688916928034E-05
   3.941997027806121E-05   4.041767446468863E-05   4.144062452258273E-05
   4.248945898343248E-05   4.356483251418558E-05   4.466741632401554E-05
   4.579789858151433E-05   4.695698484236532E-05   4.814539848775853E-05
   4.936388117381409E-05   5.061319329229023E-05   5.189411444285482E-05
   5.320744391720914E-05   5.455400119535852E-05   5.593462645433092E-05
   5.735018108965392E-05   5.880154824990631E-05   6.028963338466856E-05
   6.181536480620542E-05   6.337969426521946E-05   6.498359754102642E-05
   6.662807504650783E-05   6.831415244820723E-05   7.004288130194512E-05
   7.181533970433492E-05   7.363263296059458E-05   7.549589426905473E-05
   7.740628542277620E-05   7.936499752869911E-05   8.137325174475348E-05
   8.343230003537665E-05   8.554342594588841E-05   8.770794539618789E-05
   8.992720749424791E-05   9.220259536989021E-05   9.453552702934333E-05
   9.692745623108789E-05   9.937987338351387E-05   1.018943064649228E-04
   1.044723219664191E-04   1.071155258582529E-04   1.098255645801837E-04
   1.126041260564525E-04   1.154529407359605E-04   1.183737826582661E-04
   1.213684705460318E-04   1.244388689245587E-04   1.275868892690670E-04
   1.308144911803967E-04   1.341236835898104E-04   1.375165259936072E-04
   1.409951297182644E-04   1.445616592168410E-04   1.482183333974004E-04
   1.519674269842140E-04   1.558112719125411E-04   1.597522587577840E-04
   1.637928381998413E-04   1.679355225235047E-04   1.721828871557516E-04
   1.765375722408200E-04   1.810022842539593E-04   1.855797976547753E-04
   1.902729565811108E-04   1.950846765844140E-04   2.000179464075820E-04
   2.050758298062734E-04   2.102614674147156E-04   2.155780786570510E-04
   2.210289637052838E-04   2.266175054849233E-04   2.323471717294292E-04
   2.382215170845976E-04   2.442441852640447E-04   2.504189112569697E-04
   2.567495235894069E-04   2.632399466401956E-04   2.698942030129247E-04
   2.767164159651367E-04   2.837108118960900E-04   2.908817228944235E-04
   2.982335893470739E-04   3.057709626108361E-04   3.134985077479783E-04
   3.214210063273442E-04   3.295433592924222E-04   3.378705898978622E-04
   3.464078467159671E-04   3.551604067147113E-04   3.641336784088518E-04
   3.733332050857507E-04   3.827646681075342E-04   3.924338902912487E-04
   4.023468393687105E-04   4.125096315277576E-04   4.229285350366586E-04
   4.336099739534494E-04   4.445605319219985E-04   4.557869560566397E-04
   4.672961609172161E-04   4.790952325764395E-04   4.911914327814658E-04
   5.035922032116324E-04   5.163051698343274E-04   5.293381473609730E-04
   5.426991438051592E-04   5.563963651449579E-04   5.704382200914923E-04
   5.848333249658576E-04   5.995905086864949E-04   6.147188178691713E-04
   6.302275220417143E-04   6.461261189756827E-04   6.624243401371667E-04
   6.791321562589291E-04   6.962597830361245E-04   7.138176869478308E-04
   7.318165912066513E-04   7.502674818386576E-04   7.691816138959305E-04
   7.885705178040043E-04   8.084460058464733E-04   8.288201787890605E-04
   8.497054326454282E-04   8.711144655869978E-04   8.930602849990644E-04
   9.155562146854568E-04   9.386159022239844E-04   9.622533264749068E-04
   9.864828052446020E-04   1.011319003106643E-03   1.036776939382391E-03
   1.062871996283230E-03   1.089619927216493E-03   1.117036865257088E-03
   1.145139331786791E-03   1.173944245303093E-03   1.203468930399425E-03
   1.233731126918524E-03   1.264748999280577E-03   1.296541145987750E-03
   1.329126609306552E-03   1.362524885129401E-03   1.396755933016645E-03
   1.431840186420112E-03   1.467798563089202E-03   1.504652475660304E-03
   1.542423842430194E-03   1.581135098313886E-03   1.620809205987186E-03
   1.661469667214051E-03   1.703140534358564E-03   1.745846422081136E-03
   1.789612519218280E-03   1.834464600845010E-03   1.880429040518664E-03
   1.927532822702578E-03   1.975803555367735E-03   2.025269482770195E-03
   2.075959498401583E-03   2.127903158109716E-03   2.181130693385833E-03
   2.235673024814513E-03   2.291561775681908E-03   2.348829285737250E-03
   2.407508625102266E-03   2.467633608322333E-03   2.529238808552695E-03
   2.592359571872413E-03   2.657032031717917E-03   2.723293123427437E-03
   2.791180598886711E-03   2.860733041265518E-03   2.931989879833846E-03
   3.004991404845375E-03   3.079778782475216E-03   3.156394069797620E-03
   3.234880229788396E-03   3.315281146335618E-03   3.397641639240919E-03
   3.482007479192549E-03   3.568425402689882E-03   3.656943126897736E-03
   3.747609364407399E-03   3.840473837879561E-03   3.935587294542980E-03
   4.033001520520659E-03   4.132769354953769E-03   4.234944703891550E-03
   4.339582553913316E-03   4.446738985446879E-03   4.556471185745203E-03
   4.668837461481000E-03   4.783897250916537E-03   4.901711135603223E-03
   5.022340851563240E-03   5.145849299902365E-03   5.272300556800427E-03
   5.401759882822820E-03   5.534293731493127E-03   5.669969757063958E-03
   5.808856821419225E-03   5.951025000037833E-03   6.096545586944822E-03
   6.245491098571934E-03   6.397935276445942E-03   6.553953088618238E-03
   6.713620729745177E-03   6.877015619723855E-03   7.044216400783139E-03
   7.215302932925028E-03   7.390356287605872E-03   7.569458739541911E-03
   7.752693756517786E-03   7.940145987070902E-03   8.131901245918666E-03
   8.328046496989174E-03   8.528669833909597E-03   8.733860457799912E-03
   8.943708652212444E-03   9.158305755051086E-03   9.377744127296170E-03
   9.602117118353792E-03   9.831519027840558E-03   1.006604506360638E-02
   1.030579129579038E-02   1.055085460669584E-02   1.080133263626197E-02
   1.105732372290124E-02   1.131892683946186E-02   1.158624152406614E-02
   1.185936780556566E-02   1.213840612334471E-02   1.242345724119421E-02
   1.271462215496736E-02   1.301200199372007E-02   1.331569791402722E-02
   1.362581098715706E-02   1.394244207877593E-02   1.426569172084401E-02
   1.459565997535478E-02   1.493244628955887E-02   1.527614934230422E-02
   1.562686688111506E-02   1.598469554962101E-02   1.634973070494085E-02
   1.672206622461428E-02   1.710179430266780E-02   1.748900523439342E-02
   1.788378718940938E-02   1.828622597256817E-02   1.869640477226875E-02
   1.911440389572589E-02   1.954030049074642E-02   1.997416825355645E-02
   2.041607712222561E-02   2.086609295523046E-02   2.132427719470299E-02
   2.179068651391247E-02   2.226537244853248E-02   2.274838101125451E-02
   2.323975228931588E-02   2.373952002452362E-02   2.424771117537031E-02
   2.476434546085349E-02   2.528943488563445E-02   2.582298324619278E-02
   2.636498561766409E-02   2.691542782108031E-02   2.747428587076603E-02
   2.804152540169107E-02   2.861710107662066E-02   2.920095597296112E-02
   2.979302094925641E-02   3.039321399135309E-02   3.100143953832729E-02
   3.161758778834168E-02   3.224153398468940E-02   3.287313768237698E-02
   3.351224199569870E-02   3.415867282737162E-02   3.481223807991851E-02
   3.547272685012112E-02   3.613990860750908E-02   3.681353235800184E-02
   3.749332579399095E-02   3.817899443232445E-02   3.887022074184918E-02
   3.956666326237080E-02   4.026795571710752E-02   4.097370612094953E-02
   4.168349588707954E-02   4.239687893477385E-02   4.311338080148117E-02
   4.383249776256604E-02   4.455369596241648E-02   4.527641056093537E-02
   4.600004489977766E-02   4.672396969305086E-02   4.744752224756445E-02
   4.817000571810374E-02   4.889068840359928E-02   4.960880309047946E-02
   5.032354644992012E-02   5.103407849613850E-02   5.173952211333289E-02
   5.243896265931716E-02   5.313144765436636E-02   5.381598656425278E-02
   5.449155068691497E-02   5.515707315267102E-02   5.581144904833843E-02
   5.645353567607446E-02   5.708215295818227E-02   5.769608399953784E-02
   5.829407581968419E-02   5.887484026698948E-02   5.943705512758485E-02
   5.997936544206676E-02   6.050038504316077E-02   6.099869832769929E-02
   6.147286227633839E-02   6.192140873443495E-02   6.234284696740390E-02
   6.273566650366334E-02   6.309834027795082E-02   6.342932808732754E-02
   6.372708037158124E-02   6.399004232896588E-02   6.421665837726752E-02
   6.440537696904597E-02   6.455465576855110E-02   6.466296719623883E-02
   6.472880434499716E-02   6.475068727011977E-02   6.472716965272172E-02
   6.465684583366064E-02   6.453835821209546E-02   6.437040499957038E-02
   6.415174831694503E-02   6.388122261759110E-02   6.355774341604138E-02
   6.318031629670090E-02   6.274804617231657E-02   6.226014675666040E-02
   6.171595021031562E-02   6.111491691259373E-02   6.045664530646898E-02
   5.974088175703048E-02   5.896753035736900E-02   5.813666260906963E-02
   5.724852689765796E-02   5.630355767649253E-02   5.530238426581528E-02
   5.424583916705550E-02   5.313496578613333E-02   5.197102545357268E-02
   5.075550362382902E-02   4.949011513153225E-02   4.817680837851560E-02
   4.681776832270765E-02   4.541541813844217E-02   4.397241941765976E-02
   4.249167078309701E-02   4.097630478808111E-02   3.942968298322322E-02
   3.785538903837514E-02   3.625721981888354E-02   3.463917432871393E-02
   3.300544044958255E-02   3.136037942504525E-02   2.970850806168931E-02
   2.805447864624114E-02   2.640305660762995E-02   2.475909598676948E-02
   2.312751281395973E-02   2.151325653416632E-02   1.992127966365475E-02
   1.835650590713258E-02   1.682379701203373E-02   1.532791868511772E-02
   1.387350594518769E-02   1.246502833326693E-02   1.110675544666596E-02
   9.802723304371149E-03   8.556702086270167E-03   7.372165815804809E-03
   6.252264572374077E-03   5.199799823692635E-03   4.217203456578927E-03
   3.306521054434453E-03   2.469399917989902E-03   1.707082249690151E-03
   1.020403818419001E-03   4.097982872984952E-04  -1.246927794658834E-04
  -5.834044163312811E-04  -9.670276862642890E-04  -1.276584738864370E-03
  -1.513400505863570E-03  -1.679072388347925E-03  -1.775439666039210E-03
  -1.804554760176531E-03  -1.768658900103607E-03  -1.670165169178868E-03
  -1.511652324722895E-03  -1.300367050918044E-03  -1.060477467751592E-03
  -8.169577921846721E-04  -5.899453877519639E-04  -3.941022434857111E-04
  -2.382871233940209E-04  -1.255845356319951E-04  -5.372221802532606E-05
  -1.588999673382552E-05  -1.949822876712304E-06   0.000000000000000E+00
   0.000000000000000E+00   0.000000000000000E+00   0.000000000000000E+00
   0.000000000000000E+00   0.000000000000000E+00   0.000000000000000E+00
   0.000000000000000E+00   0.000000000000000E+00   0.000000000000000E+00
   0.000000000000000E+00   0.000000000000000E+00   0.000000000000000E+00
   0.000000000000000E+00   0.000000000000000E+00   0.000000000000000E+00
   0.000000000000000E+00   0.000000000000000E+00   0.000000000000000E+00
   0.000000000000000E+00   0.000000000000000E+00   0.000000000000000E+00
   0.000000000000000E+00   0.000000000000000E+00   0.000000000000000E+00
   0.000000000000000E+00   0.000000000000000E+00   0.000000000000000E+00
   0.000000000000000E+00   0.000000000000000E+00   0.000000000000000E+00
   0.000000000000000E+00   0.000000000000000E+00   0.000000000000000E+00
   0.000000000000000E+00   0.000000000000000E+00   0.000000000000000E+00
   0.000000000000000E+00   0.000000000000000E+00   0.000000000000000E+00
   0.000000000000000E+00   0.000000000000000E+00   0.000000000000000E+00
   0.000000000000000E+00   0.000000000000000E+00   0.000000000000000E+00
   0.000000000000000E+00   0.000000000000000E+00   0.000000000000000E+00
   0.000000000000000E+00   0.000000000000000E+00   0.000000000000000E+00
   0.000000000000000E+00   0.000000000000000E+00   0.000000000000000E+00
   0.000000000000000E+00   0.000000000000000E+00   0.000000000000000E+00
   0.000000000000000E+00   0.000000000000000E+00   0.000000000000000E+00
   0.000000000000000E+00   0.000000000000000E+00   0.000000000000000E+00
   0.000000000000000E+00   0.000000000000000E+00   0.000000000000000E+00
   0.000000000000000E+00   0.000000000000000E+00   0.000000000000000E+00
   0.000000000000000E+00   0.000000000000000E+00   0.000000000000000E+00
   0.000000000000000E+00   0.000000000000000E+00   0.000000000000000E+00
   0.000000000000000E+00   0.000000000000000E+00   0.000000000000000E+00
   0.000000000000000E+00   0.000000000000000E+00   0.000000000000000E+00
   0.000000000000000E+00   0.000000000000000E+00   0.000000000000000E+00
   0.000000000000000E+00   0.000000000000000E+00   0.000000000000000E+00
   0.000000000000000E+00   0.000000000000000E+00   0.000000000000000E+00
   0.000000000000000E+00   0.000000000000000E+00   0.000000000000000E+00
   0.000000000000000E+00   0.000000000000000E+00   0.000000000000000E+00
   0.000000000000000E+00   0.000000000000000E+00   0.000000000000000E+00
   0.000000000000000E+00   0.000000000000000E+00   0.000000000000000E+00
   0.000000000000000E+00   0.000000000000000E+00   0.000000000000000E+00
   0.000000000000000E+00   0.000000000000000E+00   0.000000000000000E+00
   0.000000000000000E+00   0.000000000000000E+00   0.000000000000000E+00
   0.000000000000000E+00   0.000000000000000E+00   0.000000000000000E+00
   0.000000000000000E+00   0.000000000000000E+00   0.000000000000000E+00
   0.000000000000000E+00   0.000000000000000E+00   0.000000000000000E+00
   0.000000000000000E+00   0.000000000000000E+00   0.000000000000000E+00
   0.000000000000000E+00   0.000000000000000E+00   0.000000000000000E+00
   0.000000000000000E+00   0.000000000000000E+00   0.000000000000000E+00
   0.000000000000000E+00   0.000000000000000E+00   0.000000000000000E+00
   0.000000000000000E+00   0.000000000000000E+00   0.000000000000000E+00
   0.000000000000000E+00   0.000000000000000E+00   0.000000000000000E+00
   0.000000000000000E+00   0.000000000000000E+00   0.000000000000000E+00
   0.000000000000000E+00   0.000000000000000E+00   0.000000000000000E+00
   0.000000000000000E+00   0.000000000000000E+00   0.000000000000000E+00
   0.000000000000000E+00   0.000000000000000E+00   0.000000000000000E+00
   0.000000000000000E+00   0.000000000000000E+00   0.000000000000000E+00
   0.000000000000000E+00   0.000000000000000E+00   0.000000000000000E+00
   0.000000000000000E+00   0.000000000000000E+00   0.000000000000000E+00
   0.000000000000000E+00   0.000000000000000E+00   0.000000000000000E+00
   0.000000000000000E+00   0.000000000000000E+00   0.000000000000000E+00
   0.000000000000000E+00   0.000000000000000E+00   0.000000000000000E+00
   0.000000000000000E+00   0.000000000000000E+00   0.000000000000000E+00
   0.000000000000000E+00   0.000000000000000E+00   0.000000000000000E+00
   0.000000000000000E+00   0.000000000000000E+00   0.000000000000000E+00
   0.000000000000000E+00   0.000000000000000E+00   0.000000000000000E+00
   0.000000000000000E+00   0.000000000000000E+00   0.000000000000000E+00
   0.000000000000000E+00   0.000000000000000E+00   0.000000000000000E+00
   0.000000000000000E+00   0.000000000000000E+00   0.000000000000000E+00
   0.000000000000000E+00   0.000000000000000E+00   0.000000000000000E+00
   0.000000000000000E+00   0.000000000000000E+00   0.000000000000000E+00
   0.000000000000000E+00   0.000000000000000E+00   0.000000000000000E+00
   0.000000000000000E+00   0.000000000000000E+00   0.000000000000000E+00
   0.000000000000000E+00   0.000000000000000E+00   0.000000000000000E+00
   0.000000000000000E+00   0.000000000000000E+00   0.000000000000000E+00
   0.000000000000000E+00   0.000000000000000E+00   0.000000000000000E+00
   0.000000000000000E+00   0.000000000000000E+00   0.000000000000000E+00
   0.000000000000000E+00   0.000000000000000E+00   0.000000000000000E+00
   0.000000000000000E+00   0.000000000000000E+00   0.000000000000000E+00
   0.000000000000000E+00   0.000000000000000E+00   0.000000000000000E+00
   0.000000000000000E+00   0.000000000000000E+00   0.000000000000000E+00
   0.000000000000000E+00   0.000000000000000E+00   0.000000000000000E+00
   0.000000000000000E+00   0.000000000000000E+00   0.000000000000000E+00
   0.000000000000000E+00   0.000000000000000E+00   0.000000000000000E+00
   0.000000000000000E+00   0.000000000000000E+00   0.000000000000000E+00
   0.000000000000000E+00   0.000000000000000E+00   0.000000000000000E+00
   0.000000000000000E+00   0.000000000000000E+00   0.000000000000000E+00
   0.000000000000000E+00   0.000000000000000E+00   0.000000000000000E+00
   0.000000000000000E+00   0.000000000000000E+00   0.000000000000000E+00
   0.000000000000000E+00   0.000000000000000E+00   0.000000000000000E+00
   0.000000000000000E+00   0.000000000000000E+00   0.000000000000000E+00
   0.000000000000000E+00   0.000000000000000E+00   0.000000000000000E+00
   0.000000000000000E+00   0.000000000000000E+00   0.000000000000000E+00
   0.000000000000000E+00   0.000000000000000E+00   0.000000000000000E+00
   0.000000000000000E+00   0.000000000000000E+00   0.000000000000000E+00
   0.000000000000000E+00   0.000000000000000E+00   0.000000000000000E+00
   0.000000000000000E+00   0.000000000000000E+00   0.000000000000000E+00
   0.000000000000000E+00   0.000000000000000E+00   0.000000000000000E+00
   0.000000000000000E+00   0.000000000000000E+00   0.000000000000000E+00
   0.000000000000000E+00   0.000000000000000E+00   0.000000000000000E+00
   0.000000000000000E+00   0.000000000000000E+00   0.000000000000000E+00
   0.000000000000000E+00   0.000000000000000E+00   0.000000000000000E+00
   0.000000000000000E+00   0.000000000000000E+00   0.000000000000000E+00
   0.000000000000000E+00   0.000000000000000E+00   0.000000000000000E+00
   0.000000000000000E+00   0.000000000000000E+00   0.000000000000000E+00
   0.000000000000000E+00   0.000000000000000E+00   0.000000000000000E+00
   0.000000000000000E+00   0.000000000000000E+00   0.000000000000000E+00
   0.000000000000000E+00   0.000000000000000E+00   0.000000000000000E+00
   0.000000000000000E+00   0.000000000000000E+00   0.000000000000000E+00
   0.000000000000000E+00
      </PP_QIJL.2.2.0>
      <PP_QIJL.2.3.1 first_index="2" second_index="3" composite_index="5" angular_momentum="1" size="1135">
   1.490559626110689E-13   1.547516885756004E-13   1.606650596012433E-13
   1.668043923402549E-13   1.731783212407740E-13   1.797958106904329E-13
   1.866661676240044E-13   1.937990546128126E-13   2.012045034543121E-13
   2.088929292809588E-13   2.168751452082008E-13   2.251623775422042E-13
   2.337662815686945E-13   2.426989579451197E-13   2.519729697191956E-13
   2.616013599977545E-13   2.715976702907653E-13   2.819759595563097E-13
   2.927508239733052E-13   3.039374174697886E-13   3.155514730356156E-13
   3.276093248495717E-13   3.401279312519979E-13   3.531248985952478E-13
   3.666185060055214E-13   3.806277310908885E-13   3.951722766316788E-13
   4.102725982907565E-13   4.259499333826613E-13   4.422263307420820E-13
   4.591246817336505E-13   4.766687524466960E-13   4.948832171202145E-13
   5.137936928450790E-13   5.334267755922904E-13   5.538100776179308E-13
   5.749722662974452E-13   5.969431044438536E-13   6.197534921666000E-13
   6.434355103299206E-13   6.680224656718257E-13   6.935489376471844E-13
   7.200508270607676E-13   7.475654065586578E-13   7.761313730490428E-13
   8.057889021260952E-13   8.365797045735146E-13   8.685470850271726E-13
   9.017360028793759E-13   9.361931355104081E-13   9.719669439362582E-13
   1.009107740964896E-12   1.047667761956929E-12   1.087701238290154E-12
   1.129264473631364E-12   1.172415923122606E-12   1.217216275593346E-12
   1.263728538914100E-12   1.312018128611607E-12   1.362152959870159E-12
   1.414203543048481E-12   1.468243082846504E-12   1.524347581261500E-12
   1.582595944478366E-12   1.643070093844417E-12   1.705855081084711E-12
   1.771039207920013E-12   1.838714150255581E-12   1.908975087115450E-12
   1.981920834503576E-12   2.057653984380031E-12   2.136281048947795E-12
   2.217912610453014E-12   2.302663476709415E-12   2.390652842565660E-12
   2.482004457542605E-12   2.576846799876383E-12   2.675313257211986E-12
   2.777542314201504E-12   2.883677747270891E-12   2.993868826829095E-12
   3.108270527204052E-12   3.227043744600733E-12   3.350355523387769E-12
   3.478379291031006E-12   3.611295102004221E-12   3.749289891020260E-12
   3.892557735938560E-12   4.041300130718908E-12   4.195726268805344E-12
   4.356053337338617E-12   4.522506822611168E-12   4.695320827194111E-12
   4.874738399182261E-12   5.061011874020297E-12   5.254403229390664E-12
   5.455184453662580E-12   5.663637928420088E-12   5.880056825607310E-12
   6.104745519849430E-12   6.338020016529137E-12   6.580208396220855E-12
   6.831651276107582E-12   7.092702289029386E-12   7.363728580837364E-12
   7.645111326752273E-12   7.937246267454400E-12   8.240544265658417E-12
   8.555431883956034E-12   8.882351984739185E-12   9.221764353047344E-12
   9.574146343215145E-12   9.939993550229641E-12   1.031982050674138E-11
   1.071416140670976E-11   1.112357085670000E-11   1.154862465588893E-11
   1.198992060587614E-11   1.244807935143955E-11   1.292374525341807E-11
   1.341758729494850E-11   1.393030002233172E-11   1.446260452185106E-11
   1.501524943391687E-11   1.558901200596350E-11   1.618469918557929E-11
   1.680314875540744E-11   1.744523051141342E-11   1.811184748617632E-11
   1.880393721892459E-11   1.952247307410190E-11   2.026846561031834E-11
   2.104296400161165E-11   2.184705751301749E-11   2.268187703252441E-11
   2.354859666156704E-11   2.444843536629567E-11   2.538265869194375E-11
   2.635258054270444E-11   2.735956502962008E-11   2.840502838908222E-11
   2.949044097464191E-11   3.061732932493034E-11   3.178727831059870E-11
   3.300193336329703E-11   3.426300278982553E-11   3.557226017471504E-11
   3.693154687461383E-11   3.834277460798976E-11   3.980792814379016E-11
   4.132906809283944E-11   4.290833380590209E-11   4.454794638248550E-11
   4.625021179461479E-11   4.801752412997319E-11   4.985236895896768E-11
   5.175732683045758E-11   5.373507690106061E-11   5.578840070314142E-11
   5.792018605678227E-11   6.013343113123604E-11   6.243124866157610E-11
   6.481687032647091E-11   6.729365129324145E-11   6.986507493659461E-11
   7.253475773766477E-11   7.530645437026085E-11   7.818406298146343E-11
   8.117163067400588E-11   8.427335919814648E-11   8.749361086103403E-11
   9.083691466188628E-11   9.430797266159831E-11   9.791166659574816E-11
   1.016530647402973E-10   1.055374290396366E-10   1.095702225070154E-10
   1.137571169077444E-10   1.181040007359937E-10   1.226169874963954E-10
   1.273024243020974E-10   1.321669008013704E-10   1.372172584453068E-10
   1.424606001096599E-10   1.479043000843491E-10   1.535560144446742E-10
   1.594236918188416E-10   1.655155845669245E-10   1.718402603869953E-10
   1.784066143647475E-10   1.852238814835457E-10   1.923016496125168E-10
   1.996498729909233E-10   2.072788862278044E-10   2.151994188365645E-10
   2.234226103249432E-10   2.319600258616089E-10   2.408236725413839E-10
   2.500260162719962E-10   2.595799993060999E-10   2.694990584432101E-10
   2.797971439271769E-10   2.904887390657430E-10   3.015888805998031E-10
   3.131131798510017E-10   3.250778446773992E-10   3.374997022681147E-10
   3.503962228089626E-10   3.637855440523993E-10   3.776864968263202E-10
   3.921186315175676E-10   4.071022455674332E-10   4.226584120177750E-10
   4.388090091479323E-10   4.555767512441058E-10   4.729852205444571E-10
   4.910589004048976E-10   5.098232097321557E-10   5.293045387325872E-10
   5.495302860269904E-10   5.705288971836049E-10   5.923299047235275E-10
   6.149639696547510E-10   6.384629245932777E-10   6.628598185319460E-10
   6.881889633198859E-10   7.144859819180515E-10   7.417878584985986E-10
   7.701329904586325E-10   7.995612424214538E-10   8.301140023012097E-10
   8.618342395098749E-10   8.947665653883208E-10   9.289572959465333E-10
   9.644545170011938E-10   1.001308151802168E-09   1.039570031243129E-09
   1.079293966754897E-09   1.120535825984141E-09   1.163353611363792E-09
   1.207807541685653E-09   1.253960136790005E-09   1.301876305491181E-09
   1.351623436862865E-09   1.403271495011425E-09   1.456893117470575E-09
   1.512563717355746E-09   1.570361589421783E-09   1.630368020173168E-09
   1.692667402181569E-09   1.757347352771470E-09   1.824498837240833E-09
   1.894216296789999E-09   1.966597781338779E-09   2.041745087418494E-09
   2.119763901332840E-09   2.200763947788955E-09   2.284859144207610E-09
   2.372167760929606E-09   2.462812587543606E-09   2.556921105569268E-09
   2.654625667738606E-09   2.756063684127536E-09   2.861377815399480E-09
   2.970716173432684E-09   3.084232529613354E-09   3.202086531087588E-09
   3.324443925276071E-09   3.451476792967329E-09   3.583363790317288E-09
   3.720290400095327E-09   3.862449192530299E-09   4.010040096123060E-09
   4.163270678806515E-09   4.322356439848415E-09   4.487521112907312E-09
   4.658996980667929E-09   4.837025201498182E-09   5.021856148587290E-09
   5.213749762041801E-09   5.412975914434465E-09   5.619814790320168E-09
   5.834557280252317E-09   6.057505389853788E-09   6.288972664517627E-09
   6.529284630334482E-09   6.778779251866937E-09   7.037807407414099E-09
   7.306733382434906E-09   7.585935381823767E-09   7.875806061758669E-09
   8.176753081869779E-09   8.489199678504492E-09   8.813585259895197E-09
   9.150366024066400E-09   9.500015600349719E-09   9.863025715409068E-09
   1.023990688471189E-08   1.063118913041892E-08   1.103742272670151E-08
   1.145917897353434E-08   1.189705100005135E-08   1.235165459859418E-08
   1.282362909062567E-08   1.331363822572570E-08   1.382237111493288E-08
   1.435054319974463E-08   1.489889725813706E-08   1.546820444901951E-08
   1.605926539659149E-08   1.667291131612617E-08   1.731000518276338E-08
   1.797144294495430E-08   1.865815478426389E-08   1.937110642330186E-08
   2.011130048362005E-08   2.087977789548545E-08   2.167761936150960E-08
   2.250594687619209E-08   2.336592530351348E-08   2.425876401479476E-08
   2.518571858912559E-08   2.614809257875061E-08   2.714723934189514E-08
   2.818456394560585E-08   2.926152514128088E-08   3.037963741566427E-08
   3.154047312018885E-08   3.274566468165790E-08   3.399690689737328E-08
   3.529595931793445E-08   3.664464872105613E-08   3.804487167988173E-08
   3.949859722940000E-08   4.100786963471155E-08   4.257481126503569E-08
   4.420162557749300E-08   4.589060021485843E-08   4.764411022163484E-08
   4.946462138296589E-08   5.135469369107914E-08   5.331698494412680E-08
   5.535425448248278E-08   5.746936706774136E-08   5.966529690986747E-08
   6.194513184815529E-08   6.431207769186541E-08   6.676946272663983E-08
   6.932074239302172E-08   7.196950414365086E-08   7.471947248595690E-08
   7.757451421742890E-08   8.053864386081701E-08   8.361602930689436E-08
   8.681099767270437E-08   9.012804138351848E-08   9.357182448704194E-08
   9.714718920873477E-08   1.008591627574490E-07   1.047129643909360E-07
   1.087140127511445E-07   1.128679334796005E-07   1.171805671235637E-07
   1.216579773440545E-07   1.263064594372698E-07   1.311325491813503E-07
   1.361430320209085E-07   1.413449526022119E-07   1.467456246723947E-07
   1.523526413565923E-07   1.581738858274139E-07   1.642175423817211E-07
   1.704921079402544E-07   1.770064039862352E-07   1.837695889596900E-07
   1.907911711248810E-07   1.980810219288839E-07   2.056493898700543E-07
   2.135069148958213E-07   2.216646433500011E-07   2.301340434905858E-07
   2.389270215997557E-07   2.480559387087090E-07   2.575336279607423E-07
   2.673734126369202E-07   2.775891248695956E-07   2.881951250700108E-07
   2.992063220971358E-07   3.106381941962797E-07   3.225068107361287E-07
   3.348288547756612E-07   3.476216464916187E-07   3.609031674999153E-07
   3.746920861047590E-07   3.890077835109890E-07   4.038703810362093E-07
   4.193007683609438E-07   4.353206328562842E-07   4.519524900299594E-07
   4.692197151336950E-07   4.871465759758287E-07   5.057582669852765E-07
   5.250809445742451E-07   5.451417638495285E-07   5.659689167234653E-07
   5.875916714776142E-07   6.100404138351727E-07   6.333466895988791E-07
   6.575432489140900E-07   6.826640922191770E-07   7.087445179472090E-07
   7.358211720458323E-07   7.639320993837083E-07   7.931167971164644E-07
   8.234162700858522E-07   8.548730883296212E-07   8.875314467821122E-07
   9.214372272497939E-07   9.566380627473377E-07   9.931834042835286E-07
   1.031124590191598E-06   1.070514918099717E-06   1.111409719641811E-06
   1.153866438013079E-06   1.197944708477996E-06   1.243706441944347E-06
   1.291215911716892E-06   1.340539843554194E-06   1.391747509152512E-06
   1.444910823186666E-06   1.500104444044139E-06   1.557405878390874E-06
   1.616895589715020E-06   1.678657111000479E-06   1.742777161683796E-06
   1.809345769060677E-06   1.878456394307230E-06   1.950206063293239E-06
   2.024695502367949E-06   2.102029279307318E-06   2.182315949616513E-06
   2.265668208392881E-06   2.352203047958720E-06   2.442041921480592E-06
   2.535310912804824E-06   2.632140912741463E-06   2.732667802043009E-06
   2.837032641327434E-06   2.945381868212646E-06   3.057867501930755E-06
   3.174647355706010E-06   3.295885257191594E-06   3.421751277265601E-06
   3.552421967504163E-06   3.688080606659502E-06   3.828917456480171E-06
   3.975130027227548E-06   4.126923353254049E-06   4.284510279019401E-06
   4.448111755942185E-06   4.617957150491673E-06   4.794284563941702E-06
   4.977341164230513E-06   5.167383530375220E-06   5.364678009916372E-06
   5.569501089883080E-06   5.782139781781633E-06   6.002892021139784E-06
   6.232067082148534E-06   6.469986007968063E-06   6.716982057287227E-06
   6.973401167742372E-06   7.239602436828479E-06   7.515958620957383E-06
   7.802856653338768E-06   8.100698181391895E-06   8.409900124414692E-06
   8.730895252266323E-06   9.064132785848326E-06   9.410079020197310E-06
   9.769217971029468E-06   1.014205204561405E-05   1.052910273887701E-05
   1.093091135567467E-05   1.134803976021265E-05   1.178107115361014E-05
   1.223061088066538E-05   1.269728726689202E-05   1.318175248695837E-05
   1.368468346568631E-05   1.420678281281465E-05   1.474877979277561E-05
   1.531143133077505E-05   1.589552305651926E-05   1.650187038697187E-05
   1.713131964957659E-05   1.778474924743794E-05   1.846307086800150E-05
   1.916723073682200E-05   1.989821091808416E-05   2.065703066357795E-05
   2.144474781190681E-05   2.226246023975903E-05   2.311130736714712E-05
   2.399247171857741E-05   2.490718054218818E-05   2.585670748896031E-05
   2.684237435418432E-05   2.786555288343782E-05   2.892766664540841E-05
   3.003019297397878E-05   3.117466498207255E-05   3.236267364984366E-05
   3.359586998988798E-05   3.487596729224006E-05   3.620474345201255E-05
   3.758404338263984E-05   3.901578151777913E-05   4.050194440503276E-05
   4.204459339475500E-05   4.364586742732282E-05   4.530798592235528E-05
   4.703325177349017E-05   4.882405445243887E-05   5.068287322616611E-05
   5.261228049116850E-05   5.461494522895244E-05   5.669363658694378E-05
   5.885122758920665E-05   6.109069898147700E-05   6.341514321516939E-05
   6.582776857516338E-05   6.833190345631449E-05   7.093100079381018E-05
   7.362864265263378E-05   7.642854498156843E-05   7.933456253733935E-05
   8.235069398465971E-05   8.548108717812723E-05   8.873004463208641E-05
   9.210202918476031E-05   9.560166986313288E-05   9.923376795526630E-05
   1.030033032969090E-04   1.069154407794649E-04   1.109755370865803E-04
   1.151891476668186E-04   1.195620339500756E-04   1.241001708156360E-04
   1.288097543199319E-04   1.336972096923231E-04   1.387691996074022E-04
   1.440326327425600E-04   1.494946726297614E-04   1.551627468107039E-04
   1.610445563047440E-04   1.671480853992086E-04   1.734816117719226E-04
   1.800537169559994E-04   1.868732971571795E-04   1.939495744341955E-04
   2.012921082528709E-04   2.089108074248715E-04   2.168159424422357E-04
   2.250181582190037E-04   2.335284872514739E-04   2.423583632088102E-04
   2.515196349658759E-04   2.610245810903901E-04   2.708859247966224E-04
   2.811168493780118E-04   2.917310141312493E-04   3.027425707844317E-04
   3.141661804420834E-04   3.260170310598402E-04   3.383108554617261E-04
   3.510639499129665E-04   3.642931932612821E-04   3.780160666596514E-04
   3.922506738834321E-04   4.070157622547007E-04   4.223307441865329E-04
   4.382157193598137E-04   4.546914975449753E-04   4.717796220808048E-04
   4.895023940221937E-04   5.078828969683495E-04   5.269450225825699E-04
   5.467134968142310E-04   5.672139068331112E-04   5.884727286855025E-04
   6.105173556809490E-04   6.333761275175880E-04   6.570783601532530E-04
   6.816543764284943E-04   7.071355374465820E-04   7.335542747143849E-04
   7.609441230466403E-04   7.893397542347465E-04   8.187770114795305E-04
   8.492929445857516E-04   8.809258459141554E-04   9.137152870847931E-04
   9.477021564230852E-04   9.829286971376290E-04   1.019438546216003E-03
   1.057276774022038E-03   1.096489924574746E-03   1.137126056485829E-03
   1.179234784528916E-03   1.222867321809825E-03   1.268076522502820E-03
   1.314916925113276E-03   1.363444796222325E-03   1.413718174663682E-03
   1.465796916077260E-03   1.519742737778160E-03   1.575619263873031E-03
   1.633492070549055E-03   1.693428731453245E-03   1.755498863071942E-03
   1.819774170012022E-03   1.886328490076209E-03   1.955237839015573E-03
   2.026580454831930E-03   2.100436841492219E-03   2.176889811905455E-03
   2.256024530000565E-03   2.337928551730856E-03   2.422691864816826E-03
   2.510406927024891E-03   2.601168702764224E-03   2.695074697767676E-03
   2.792224991605904E-03   2.892722267765717E-03   2.996671841004727E-03
   3.104181681674586E-03   3.215362436683833E-03   3.330327446749731E-03
   3.449192759564944E-03   3.572077138480828E-03   3.699102066283749E-03
   3.830391743613843E-03   3.966073081548439E-03   4.106275687842558E-03
   4.251131846289063E-03   4.400776488629562E-03   4.555347158413573E-03
   4.714983966170405E-03   4.879829535221770E-03   5.050028937427061E-03
   5.225729618115408E-03   5.407081309418750E-03   5.594235931180918E-03
   5.787347478575177E-03   5.986571895520871E-03   6.192066932946280E-03
   6.403991990899558E-03   6.622507943465718E-03   6.847776945400349E-03
   7.079962219345096E-03   7.319227822443408E-03   7.565738391126800E-03
   7.819658862796848E-03   8.081154173079700E-03   8.350388927285124E-03
   8.627527044656937E-03   8.912731373956843E-03   9.206163278883295E-03
   9.507982191785247E-03   9.818345134094308E-03   1.013740620186485E-02
   1.046531601477948E-02   1.080222112695366E-02   1.114826339784979E-02
   1.150357932159761E-02   1.186829931300961E-02   1.224254694857746E-02
   1.262643816074708E-02   1.302008038378395E-02   1.342357164957223E-02
   1.383699963173136E-02   1.426044063648737E-02   1.469395853880870E-02
   1.513760366240014E-02   1.559141160225486E-02   1.605540198859023E-02
   1.652957719113764E-02   1.701392096293115E-02   1.750839702293385E-02
   1.801294757706848E-02   1.852749177747549E-02   1.905192412010908E-02
   1.958611278111062E-02   2.012989789275921E-02   2.068308976020616E-02
   2.124546702064911E-02   2.181677474709483E-02   2.239672249940836E-02
   2.298498232594111E-02   2.358118671968537E-02   2.418492653361569E-02
   2.479574886064737E-02   2.541315488448413E-02   2.603659770852648E-02
   2.666548017098765E-02   2.729915265540808E-02   2.793691090687321E-02
   2.857799386543491E-02   2.922158152949886E-02   2.986679286328484E-02
   3.051268376388449E-02   3.115824510492934E-02   3.180240087545104E-02
   3.244400643414354E-02   3.308184690093914E-02   3.371463570956762E-02
   3.434101334657578E-02   3.495954630414443E-02   3.556872627592256E-02
   3.616696962701169E-02   3.675261717114767E-02   3.732393429002900E-02
   3.787911143161733E-02   3.841626502604992E-02   3.893343885954403E-02
   3.942860594830062E-02   3.989967095589562E-02   4.034447319895410E-02
   4.076079028697956E-02   4.114634244302531E-02   4.149879755239093E-02
   4.181577698664610E-02   4.209486224997894E-02   4.233360249405694E-02
   4.252952294622104E-02   4.268013429382506E-02   4.278294306480826E-02
   4.283546304107028E-02   4.283522773681330E-02   4.277980396864506E-02
   4.266680653780230E-02   4.249391403727130E-02   4.225888578775405E-02
   4.195957989627166E-02   4.159397241961984E-02   4.116017760181614E-02
   4.065646914003455E-02   4.008130241724110E-02   3.943333762178566E-02
   3.871146365452818E-02   3.791482270267828E-02   3.704283533642393E-02
   3.609522595964810E-02   3.507204841968688E-02   3.397371155326596E-02
   3.280100441664929E-02   3.155512091786880E-02   3.023768353793944E-02
   2.885076579658321E-02   2.739691308657514E-02   2.587916146991472E-02
   2.430105399920121E-02   2.266665409951611E-02   2.098055552060561E-02
   1.924788834705420E-02   1.747432053645802E-02   1.566605444343572E-02
   1.382981778181629E-02   1.197284847986304E-02   1.010287289524763E-02
   8.228076879197774E-03   6.357069214273581E-03   4.498836999163040E-03
   2.662692618294837E-03   8.582120154402434E-04  -9.048359096658805E-04
  -2.616568843034885E-03  -4.267079457250734E-03  -5.846532429809256E-03
  -7.345269652632037E-03  -8.753922999182899E-03  -1.006353378634829E-02
  -1.126567781798292E-02  -1.235259462760298E-02  -1.331731925187265E-02
  -1.415381456797303E-02  -1.485710192158183E-02  -1.542338746414695E-02
  -1.585018131594620E-02  -1.613640638410186E-02  -1.628249340281558E-02
  -1.629045853877863E-02  -1.616395973174237E-02  -1.590832783389657E-02
  -1.553056858870337E-02  -1.503933156806827E-02  -1.444484238499279E-02
  -1.375879483640301E-02  -1.299420012687895E-02  -1.216519099690926E-02
  -1.128677944586940E-02  -1.037456781429332E-02  -9.444414282503540E-03
  -8.512055358421356E-03  -7.592689664813281E-03  -6.700529285446562E-03
  -5.848327070547429E-03  -5.046890602592967E-03  -4.304595938015191E-03
  -3.626916707504091E-03  -3.015986598839015E-03  -2.470215564746952E-03
  -1.983982178292848E-03  -1.550447002436964E-03  -1.171361974328933E-03
  -8.494017040213409E-04  -5.852505124131213E-04  -3.775463327375106E-04
  -2.228869680633572E-04  -1.159072600260824E-04  -4.943532272602691E-05
  -1.473530679013679E-05  -1.843112267807534E-06   1.110223024625157E-16
   0.000000000000000E+00   0.000000000000000E+00   0.000000000000000E+00
   0.000000000000000E+00   0.000000000000000E+00   0.000000000000000E+00
   0.000000000000000E+00   0.000000000000000E+00   0.000000000000000E+00
   0.000000000000000E+00   0.000000000000000E+00   0.000000000000000E+00
   0.000000000000000E+00   0.000000000000000E+00   0.000000000000000E+00
   0.000000000000000E+00   0.000000000000000E+00   0.000000000000000E+00
   0.000000000000000E+00   0.000000000000000E+00   0.000000000000000E+00
   0.000000000000000E+00   0.000000000000000E+00   0.000000000000000E+00
   0.000000000000000E+00   0.000000000000000E+00   0.000000000000000E+00
   0.000000000000000E+00   0.000000000000000E+00   0.000000000000000E+00
   0.000000000000000E+00   0.000000000000000E+00   0.000000000000000E+00
   0.000000000000000E+00   0.000000000000000E+00   0.000000000000000E+00
   0.000000000000000E+00   0.000000000000000E+00   0.000000000000000E+00
   0.000000000000000E+00   0.000000000000000E+00   0.000000000000000E+00
   0.000000000000000E+00   0.000000000000000E+00   0.000000000000000E+00
   0.000000000000000E+00   0.000000000000000E+00   0.000000000000000E+00
   0.000000000000000E+00   0.000000000000000E+00   0.000000000000000E+00
   0.000000000000000E+00   0.000000000000000E+00   0.000000000000000E+00
   0.000000000000000E+00   0.000000000000000E+00   0.000000000000000E+00
   0.000000000000000E+00   0.000000000000000E+00   0.000000000000000E+00
   0.000000000000000E+00   0.000000000000000E+00   0.000000000000000E+00
   0.000000000000000E+00   0.000000000000000E+00   0.000000000000000E+00
   0.000000000000000E+00   0.000000000000000E+00   0.000000000000000E+00
   0.000000000000000E+00   0.000000000000000E+00   0.000000000000000E+00
   0.000000000000000E+00   0.000000000000000E+00   0.000000000000000E+00
   0.000000000000000E+00   0.000000000000000E+00   0.000000000000000E+00
   0.000000000000000E+00   0.000000000000000E+00   0.000000000000000E+00
   0.000000000000000E+00   0.000000000000000E+00   0.000000000000000E+00
   0.000000000000000E+00   0.000000000000000E+00   0.000000000000000E+00
   0.000000000000000E+00   0.000000000000000E+00   0.000000000000000E+00
   0.000000000000000E+00   0.000000000000000E+00   0.000000000000000E+00
   0.000000000000000E+00   0.000000000000000E+00   0.000000000000000E+00
   0.000000000000000E+00   0.000000000000000E+00   0.000000000000000E+00
   0.000000000000000E+00   0.000000000000000E+00   0.000000000000000E+00
   0.000000000000000E+00   0.000000000000000E+00   0.000000000000000E+00
   0.000000000000000E+00   0.000000000000000E+00   0.000000000000000E+00
   0.000000000000000E+00   0.000000000000000E+00   0.000000000000000E+00
   0.000000000000000E+00   0.000000000000000E+00   0.000000000000000E+00
   0.000000000000000E+00   0.000000000000000E+00   0.000000000000000E+00
   0.000000000000000E+00   0.000000000000000E+00   0.000000000000000E+00
   0.000000000000000E+00   0.000000000000000E+00   0.000000000000000E+00
   0.000000000000000E+00   0.000000000000000E+00   0.000000000000000E+00
   0.000000000000000E+00   0.000000000000000E+00   0.000000000000000E+00
   0.000000000000000E+00   0.000000000000000E+00   0.000000000000000E+00
   0.000000000000000E+00   0.000000000000000E+00   0.000000000000000E+00
   0.000000000000000E+00   0.000000000000000E+00   0.000000000000000E+00
   0.000000000000000E+00   0.000000000000000E+00   0.000000000000000E+00
   0.000000000000000E+00   0.000000000000000E+00   0.000000000000000E+00
   0.000000000000000E+00   0.000000000000000E+00   0.000000000000000E+00
   0.000000000000000E+00   0.000000000000000E+00   0.000000000000000E+00
   0.000000000000000E+00   0.000000000000000E+00   0.000000000000000E+00
   0.000000000000000E+00   0.000000000000000E+00   0.000000000000000E+00
   0.000000000000000E+00   0.000000000000000E+00   0.000000000000000E+00
   0.000000000000000E+00   0.000000000000000E+00   0.000000000000000E+00
   0.000000000000000E+00   0.000000000000000E+00   0.000000000000000E+00
   0.000000000000000E+00   0.000000000000000E+00   0.000000000000000E+00
   0.000000000000000E+00   0.000000000000000E+00   0.000000000000000E+00
   0.000000000000000E+00   0.000000000000000E+00   0.000000000000000E+00
   0.000000000000000E+00   0.000000000000000E+00   0.000000000000000E+00
   0.000000000000000E+00   0.000000000000000E+00   0.000000000000000E+00
   0.000000000000000E+00   0.000000000000000E+00   0.000000000000000E+00
   0.000000000000000E+00   0.000000000000000E+00   0.000000000000000E+00
   0.000000000000000E+00   0.000000000000000E+00   0.000000000000000E+00
   0.000000000000000E+00   0.000000000000000E+00   0.000000000000000E+00
   0.000000000000000E+00   0.000000000000000E+00   0.000000000000000E+00
   0.000000000000000E+00   0.000000000000000E+00   0.000000000000000E+00
   0.000000000000000E+00   0.000000000000000E+00   0.000000000000000E+00
   0.000000000000000E+00   0.000000000000000E+00   0.000000000000000E+00
   0.000000000000000E+00   0.000000000000000E+00   0.000000000000000E+00
   0.000000000000000E+00   0.000000000000000E+00   0.000000000000000E+00
   0.000000000000000E+00   0.000000000000000E+00   0.000000000000000E+00
   0.000000000000000E+00   0.000000000000000E+00   0.000000000000000E+00
   0.000000000000000E+00   0.000000000000000E+00   0.000000000000000E+00
   0.000000000000000E+00   0.000000000000000E+00   0.000000000000000E+00
   0.000000000000000E+00   0.000000000000000E+00   0.000000000000000E+00
   0.000000000000000E+00   0.000000000000000E+00   0.000000000000000E+00
   0.000000000000000E+00   0.000000000000000E+00   0.000000000000000E+00
   0.000000000000000E+00   0.000000000000000E+00   0.000000000000000E+00
   0.000000000000000E+00   0.000000000000000E+00   0.000000000000000E+00
   0.000000000000000E+00   0.000000000000000E+00   0.000000000000000E+00
   0.000000000000000E+00   0.000000000000000E+00   0.000000000000000E+00
   0.000000000000000E+00   0.000000000000000E+00   0.000000000000000E+00
   0.000000000000000E+00   0.000000000000000E+00   0.000000000000000E+00
   0.000000000000000E+00   0.000000000000000E+00   0.000000000000000E+00
   0.000000000000000E+00   0.000000000000000E+00   0.000000000000000E+00
   0.000000000000000E+00   0.000000000000000E+00   0.000000000000000E+00
   0.000000000000000E+00   0.000000000000000E+00   0.000000000000000E+00
   0.000000000000000E+00   0.000000000000000E+00   0.000000000000000E+00
   0.000000000000000E+00   0.000000000000000E+00   0.000000000000000E+00
   0.000000000000000E+00   0.000000000000000E+00   0.000000000000000E+00
   0.000000000000000E+00   0.000000000000000E+00   0.000000000000000E+00
   0.000000000000000E+00   0.000000000000000E+00   0.000000000000000E+00
   0.000000000000000E+00   0.000000000000000E+00   0.000000000000000E+00
   0.000000000000000E+00   0.000000000000000E+00   0.000000000000000E+00
   0.000000000000000E+00   0.000000000000000E+00   0.000000000000000E+00
   0.000000000000000E+00   0.000000000000000E+00   0.000000000000000E+00
   0.000000000000000E+00   0.000000000000000E+00   0.000000000000000E+00
   0.000000000000000E+00   0.000000000000000E+00   0.000000000000000E+00
   0.000000000000000E+00   0.000000000000000E+00   0.000000000000000E+00
   0.000000000000000E+00   0.000000000000000E+00   0.000000000000000E+00
   0.000000000000000E+00   0.000000000000000E+00   0.000000000000000E+00
   0.000000000000000E+00   0.000000000000000E+00   0.000000000000000E+00
   0.000000000000000E+00   0.000000000000000E+00   0.000000000000000E+00
   0.000000000000000E+00
      </PP_QIJL.2.3.1>
      <PP_QIJL.2.4.1 first_index="2" second_index="4" composite_index="8" angular_momentum="1" size="1135">
   2.487956444533305E-14   2.583026228199102E-14   2.681728818113672E-14
   2.784203031055735E-14   2.890592988270184E-14   3.001048318162268E-14
   3.115724366737205E-14   3.234782416081081E-14   3.358389911190314E-14
   3.486720695468799E-14   3.619955255223763E-14   3.758280973504377E-14
   3.901892393640023E-14   4.050991492848854E-14   4.205787966301569E-14
   4.366499522039684E-14   4.533352187163364E-14   4.706580625719224E-14
   4.886428468735251E-14   5.073148656867110E-14   5.267003796137480E-14
   5.468266527269065E-14   5.677219909130452E-14   5.894157816834247E-14
   6.119385355047347E-14   6.353219287094517E-14   6.595988480459003E-14
   6.848034369306540E-14   7.109711434683298E-14   7.381387703063270E-14
   7.663445263945944E-14   7.956280807232623E-14   8.260306181136795E-14
   8.575948971413492E-14   8.903653102722120E-14   9.243879462968475E-14
   9.597106551504213E-14   9.963831152095284E-14   1.034456903160577E-13
   1.073985566538001E-13   1.115024699034267E-13   1.157632018687662E-13
   1.201867449057769E-13   1.247793203502833E-13   1.295473872677526E-13
   1.344976515374168E-13   1.396370752835186E-13   1.449728866669430E-13
   1.505125900510068E-13   1.562639765557039E-13   1.622351350152474E-13
   1.684344633543222E-13   1.748706803990481E-13   1.815528381392601E-13
   1.884903344593592E-13   1.956929263556289E-13   2.031707436586160E-13
   2.109343032798681E-13   2.189945240030689E-13   2.273627418403725E-13
   2.360507259755298E-13   2.450706953162379E-13   2.544353356789858E-13
   2.641578176305655E-13   2.742518150113479E-13   2.847315241663608E-13
   2.956116839112329E-13   3.069075962610722E-13   3.186351479514350E-13
   3.308108327816582E-13   3.434517748119677E-13   3.565757524469997E-13
   3.702012234395986E-13   3.843473508500589E-13   3.990340299973267E-13
   4.142819164400482E-13   4.301124550268401E-13   4.465479100566234E-13
   4.636113965914442E-13   4.813269129658206E-13   4.997193745383297E-13
   5.188146487329168E-13   5.386395914191987E-13   5.592220846829277E-13
   5.805910760397480E-13   6.027766191473731E-13   6.258099160734681E-13
   6.497233611786649E-13   6.745505866764329E-13   7.003265099338910E-13
   7.270873825800604E-13   7.548708414906529E-13   7.837159617210851E-13
   8.136633114621636E-13   8.447550090957451E-13   8.770347824305841E-13
   9.105480302017215E-13   9.453418859198711E-13   9.814652841606185E-13
   1.018969029386672E-12   1.057905867399920E-12   1.098330559523839E-12
   1.140299959620537E-12   1.183873094050779E-12   1.229111244689445E-12
   1.276078035113148E-12   1.324839520081272E-12   1.375464278436247E-12
   1.428023509553722E-12   1.482591133478296E-12   1.539243894885609E-12
   1.598061471017045E-12   1.659126583738829E-12   1.722525115883106E-12
   1.788346232034662E-12   1.856682503933100E-12   1.927630040666915E-12
   2.001288623842521E-12   2.077761847918336E-12   2.157157265901336E-12
   2.239586540610905E-12   2.325165601722819E-12   2.414014808814141E-12
   2.506259120638413E-12   2.602028270869154E-12   2.701456950558846E-12
   2.804684997570055E-12   2.911857593245052E-12   3.023125466590574E-12
   3.138645106264888E-12   3.258578980665220E-12   3.383095766425226E-12
   3.512370585643733E-12   3.646585252178456E-12   3.785928527351104E-12
   3.930596385423364E-12   4.080792289217325E-12   4.236727476267842E-12
   4.398621255909296E-12   4.566701317714676E-12   4.741204051720579E-12
   4.922374880888727E-12   5.110468606271392E-12   5.305749765366253E-12
   5.508493004164714E-12   5.718983463416768E-12   5.937517179655874E-12
   6.164401501547693E-12   6.399955522148252E-12   6.644510527679615E-12
   6.898410463453903E-12   7.162012417601316E-12   7.435687123282185E-12
   7.719819480089521E-12   8.014809095375347E-12   8.321070846261925E-12
   8.639035463128685E-12   8.969150135395115E-12   9.311879140451724E-12
   9.667704496623727E-12   1.003712664108538E-11   1.042066513367895E-11
   1.081885938762768E-11   1.123226942817062E-11   1.166147668018649E-11
   1.210708478591349E-11   1.256972045391645E-11   1.305003434049366E-11
   1.354870196476450E-11   1.406642465872389E-11   1.460393055359969E-11
   1.516197560390136E-11   1.574134465059833E-11   1.634285252492494E-11
   1.696734519436357E-11   1.761570095241719E-11   1.828883165384628E-11
   1.898768399710499E-11   1.971324085578225E-11   2.046652266091940E-11
   2.124858883614773E-11   2.206053928766639E-11   2.290351595115345E-11
   2.377870439778791E-11   2.468733550164039E-11   2.563068717077662E-11
   2.661008614451094E-11   2.762690985933401E-11   2.868258838614167E-11
   2.977860644148853E-11   3.091650547569345E-11   3.209788584073710E-11
   3.332440904099583E-11   3.459780006998141E-11   3.591984983637067E-11
   3.729241768273662E-11   3.871743400052605E-11   4.019690294495731E-11
   4.173290525365973E-11   4.332760117301760E-11   4.498323349633227E-11
   4.670213071807998E-11   4.848671030869522E-11   5.033948211449049E-11
   5.226305188749151E-11   5.426012495015061E-11   5.633351000009728E-11
   5.848612306027015E-11   6.072099157999084E-11   6.304125869274562E-11
   6.545018763666012E-11   6.795116634389020E-11   7.054771220537548E-11
   7.324347701766261E-11   7.604225211875290E-11   7.894797372019444E-11
   8.196472844292470E-11   8.509675906463963E-11   8.834847048677929E-11
   9.172443592951913E-11   9.522940336347607E-11   9.886830218718224E-11
   1.026462501597072E-10   1.065685605981864E-10   1.106407498503751E-10
   1.148685450527317E-10   1.192578921849534E-10   1.238149644322751E-10
   1.285461708673049E-10   1.334581654636009E-10   1.385578564536594E-10
   1.438524160444891E-10   1.493492905044162E-10   1.550562106353208E-10
   1.609812026450259E-10   1.671325994351212E-10   1.735190523201154E-10
   1.801495431943728E-10   1.870333971639646E-10   1.941802956611908E-10
   2.016002900602083E-10   2.093038158129329E-10   2.173017071250679E-10
   2.256052121929199E-10   2.342260090224176E-10   2.431762218525801E-10
   2.524684382065352E-10   2.621157265940593E-10   2.721316548905389E-10
   2.825303094181970E-10   2.933263147564135E-10   3.045348543090061E-10
   3.161716916573842E-10   3.282531927296116E-10   3.407963488165478E-10
   3.538188004674353E-10   3.673388622985362E-10   3.813755487496999E-10
   3.959486008250881E-10   4.110785138556562E-10   4.267865663224241E-10
   4.430948497810833E-10   4.600262999300010E-10   4.776047288653235E-10
   4.958548585685289E-10   5.148023556735130E-10   5.344738675621098E-10
   5.548970598387872E-10   5.761006552372242E-10   5.981144740134759E-10
   6.209694758825118E-10   6.446978035571229E-10   6.693328279503821E-10
   6.949091951052497E-10   7.214628749172992E-10   7.490312117190611E-10
   7.776529767971358E-10   8.073684229158916E-10   8.382193409244310E-10
   8.702491185264199E-10   9.035028012953840E-10   9.380271560213097E-10
   9.738707364775705E-10   1.011083951700679E-09   1.049719136878862E-09
   1.089830626949106E-09   1.131474833006194E-09   1.174710321631106E-09
   1.219597897250378E-09   1.266200687642166E-09   1.314584232709248E-09
   1.364816576643792E-09   1.416968363613427E-09   1.471112937103181E-09
   1.527326443052942E-09   1.585687936935412E-09   1.646279494925145E-09
   1.709186329314904E-09   1.774496908341628E-09   1.842303080590471E-09
   1.912700204151750E-09   1.985787280712448E-09   2.061667094770703E-09
   2.140446358169037E-09   2.222235860149495E-09   2.307150623141584E-09
   2.395310064502100E-09   2.486838164434094E-09   2.581863640321104E-09
   2.680520127721680E-09   2.782946368278566E-09   2.889286404806786E-09
   2.999689783834711E-09   3.114311765882912E-09   3.233313543776317E-09
   3.356862469296465E-09   3.485132288492555E-09   3.618303385981857E-09
   3.756563038582985E-09   3.900105678638430E-09   4.049133167396421E-09
   4.203855078836396E-09   4.364488994336878E-09   4.531260808599950E-09
   4.704405047262177E-09   4.884165196638448E-09   5.070794046061845E-09
   5.264554043300964E-09   5.465717663553847E-09   5.674567792537151E-09
   5.891398124208871E-09   6.116513573683310E-09   6.350230705918731E-09
   6.592878180779770E-09   6.844797215100061E-09   7.106342062394353E-09
   7.377880510893740E-09   7.659794400604156E-09   7.952480160114198E-09
   8.256349363906532E-09   8.571829310955884E-09   8.899363625425999E-09
   9.239412880310013E-09   9.592455244889646E-09   9.958987156922989E-09
   1.033952402050501E-08   1.073460093058063E-08   1.114477342512839E-08
   1.157061826607080E-08   1.201273425000812E-08   1.247174304991424E-08
   1.294829008897628E-08   1.344304544780550E-08   1.395670480629298E-08
   1.448999042143266E-08   1.504365214248480E-08   1.561846846490480E-08
   1.621524762451740E-08   1.683482873347218E-08   1.747808295957479E-08
   1.814591475065009E-08   1.883926310565460E-08   1.955910289432372E-08
   2.030644622720496E-08   2.108234387800032E-08   2.188788676021409E-08
   2.272420746017739E-08   2.359248182860204E-08   2.449393063289559E-08
   2.542982127255653E-08   2.640146956005660E-08   2.741024156970717E-08
   2.845755555710533E-08   2.954488395185042E-08   3.067375542632678E-08
   3.184575704345451E-08   3.306253648641887E-08   3.432580437350719E-08
   3.563733666129741E-08   3.699897713956868E-08   3.841264002143202E-08
   3.988031263231083E-08   4.140405820154245E-08   4.298601876051233E-08
   4.462841815138280E-08   4.633356515063338E-08   4.810385671178966E-08
   4.994178133188268E-08   5.184992254635817E-08   5.383096255732881E-08
   5.588768600025350E-08   5.802298385431909E-08   6.023985750199499E-08
   6.254142294347513E-08   6.493091517182919E-08   6.741169271511318E-08
   6.998724235166502E-08   7.266118400528646E-08   7.543727582712599E-08
   7.831941947132448E-08   8.131166557187890E-08   8.441821942840842E-08
   8.764344690860221E-08   9.099188057586786E-08   9.446822605050911E-08
   9.807736861346186E-08   1.018243800617888E-07   1.057145258254858E-07
   1.097532723556173E-07   1.139462947939901E-07   1.182994849351944E-07
   1.228189594921076E-07   1.275110686763126E-07   1.323824051055129E-07
   1.374398130504289E-07   1.426903980338167E-07   1.481415367954317E-07
   1.538008876363762E-07   1.596764011576275E-07   1.657763314075253E-07
   1.721092474538379E-07   1.786840453964939E-07   1.855099608377867E-07
   1.925965818273104E-07   1.999538622999031E-07   2.075921360249383E-07
   2.155221310867576E-07   2.237549849162264E-07   2.323022598942224E-07
   2.411759595490776E-07   2.503885453702480E-07   2.599529542615460E-07
   2.698826166585785E-07   2.801914753350229E-07   2.908940049244032E-07
   3.020052321839375E-07   3.135407570293088E-07   3.255167743687052E-07
   3.379500967671457E-07   3.508581779720029E-07   3.642591373328025E-07
   3.781717851488202E-07   3.926156489795170E-07   4.076110009548297E-07
   4.231788861223740E-07   4.393411518711248E-07   4.561204784726922E-07
   4.735404107815613E-07   4.916253911388204E-07   5.104007935245343E-07
   5.298929590060076E-07   5.501292325306375E-07   5.711380011146807E-07
   5.929487334799201E-07   6.155920211930803E-07   6.390996213651170E-07
   6.635045009684772E-07   6.888408828336130E-07   7.151442933881713E-07
   7.424516122041991E-07   7.708011234215184E-07   8.002325691178814E-07
   8.307872046992410E-07   8.625078563855828E-07   8.954389808718853E-07
   9.296267272451180E-07   9.651190012425382E-07   1.001965531938721E-06
   1.040217940952817E-06   1.079929814270206E-06   1.121156776776787E-06
   1.163956569607194E-06   1.208389130412619E-06   1.254516676657223E-06
   1.302403792056377E-06   1.352117516274613E-06   1.403727438004001E-06
   1.457305791550659E-06   1.512927557058671E-06   1.570670564508145E-06
   1.630615601627629E-06   1.692846525866579E-06   1.757450380578998E-06
   1.824517515574988E-06   1.894141712202206E-06   1.966420313125525E-06
   2.041454356979479E-06   2.119348718073600E-06   2.200212251338217E-06
   2.284157942704630E-06   2.371303065120230E-06   2.461769340407289E-06
   2.555683107180687E-06   2.653175495048363E-06   2.754382605325754E-06
   2.859445698503777E-06   2.968511388719242E-06   3.081731845484562E-06
   3.199265002943025E-06   3.321274776925673E-06   3.447931290095156E-06
   3.579411105473067E-06   3.715897468655518E-06   3.857580559035688E-06
   4.004657750359744E-06   4.157333880957422E-06   4.315821533997474E-06
   4.480341328132574E-06   4.651122218910102E-06   4.828401811337729E-06
   5.012426684007776E-06   5.203452725196901E-06   5.401745481371991E-06
   5.607580518549288E-06   5.821243796967320E-06   6.043032059551282E-06
   6.273253234662089E-06   6.512226853639763E-06   6.760284483668986E-06
   7.017770176511559E-06   7.285040933668283E-06   7.562467188554105E-06
   7.850433306284910E-06   8.149338101700192E-06   8.459595376261145E-06
   8.781634474487364E-06   9.115900860616444E-06   9.462856716192884E-06
   9.822981559315200E-06   1.019677288629336E-05   1.058474683649434E-05
   1.098743888117502E-05   1.140540453713017E-05   1.183922010600708E-05
   1.228948344016480E-05   1.275681473598544E-05   1.324185735556832E-05
   1.374527867777086E-05   1.426777097958652E-05   1.481005234887846E-05
   1.537286762952129E-05   1.595698940003181E-05   1.656321898679964E-05
   1.719238751306516E-05   1.784535698481929E-05   1.852302141483661E-05
   1.922630798608582E-05   1.995617825579416E-05   2.071362940147888E-05
   2.149969551029382E-05   2.231544891307207E-05   2.316200156448473E-05
   2.404050647076861E-05   2.495215916651532E-05   2.589819924204691E-05
   2.687991192294303E-05   2.789862970331908E-05   2.895573403449261E-05
   3.005265707070988E-05   3.119088347364486E-05   3.237195227741172E-05
   3.359745881587650E-05   3.486905671407847E-05   3.618845994561529E-05
   3.755744495787332E-05   3.897785286701778E-05   4.045159172469153E-05
   4.198063885839669E-05   4.356704328756450E-05   4.521292821734547E-05
   4.692049361217309E-05   4.869201885118002E-05   5.052986546756152E-05
   5.243647997400219E-05   5.441439677628962E-05   5.646624117725359E-05
   5.859473247317234E-05   6.080268714478866E-05   6.309302214507831E-05
   6.546875828590235E-05   6.793302372566092E-05   7.048905756004723E-05
   7.314021351797169E-05   7.588996376469344E-05   7.874190281415232E-05
   8.169975155244459E-05   8.476736137432404E-05   8.794871843453848E-05
   9.124794801573315E-05   9.466931901455538E-05   9.821724854748798E-05
   1.018963066778223E-04   1.057112212650396E-04   1.096668829377278E-04
   1.137683501909799E-04   1.180208546090439E-04   1.224298062137803E-04
   1.270007989392562E-04   1.317396162325557E-04   1.366522367806108E-04
   1.417448403625504E-04   1.470238138267427E-04   1.524957571913384E-04
   1.581674898667439E-04   1.640460569980111E-04   1.701387359246871E-04
   1.764530427551554E-04   1.829967390519624E-04   1.897778386240467E-04
   1.968046144211460E-04   2.040856055249892E-04   2.116296242311424E-04
   2.194457632145908E-04   2.275434027713051E-04   2.359322181271166E-04
   2.446221868042649E-04   2.536235960349419E-04   2.629470502100221E-04
   2.726034783500115E-04   2.826041415839290E-04   2.929606406205169E-04
   3.036849231946931E-04   3.147892914706267E-04   3.262864093811744E-04
   3.381893098816481E-04   3.505114020940341E-04   3.632664783158008E-04
   3.764687208653128E-04   3.901327087336749E-04   4.042734240104284E-04
   4.189062580480349E-04   4.340470173274469E-04   4.497119289842207E-04
   4.659176459517247E-04   4.826812516748173E-04   5.000202643441021E-04
   5.179526405973968E-04   5.364967786313545E-04   5.556715206623934E-04
   5.754961546719753E-04   5.959904153670767E-04   6.171744842822214E-04
   6.390689889447414E-04   6.616950010201375E-04   6.850740333491659E-04
   7.092280357830394E-04   7.341793897175507E-04   7.599509012210180E-04
   7.865657926450834E-04   8.140476926009332E-04   8.424206241771075E-04
   8.717089912683201E-04   9.019375628775950E-04   9.331314552470187E-04
   9.653161116647524E-04   9.985172797884480E-04   1.032760986317351E-03
   1.068073508837187E-03   1.104481344653955E-03   1.142011176424124E-03
   1.180689834380383E-03   1.220544254943528E-03   1.261601435502142E-03
   1.303888385133354E-03   1.347432071028895E-03   1.392259360382239E-03
   1.438396957483972E-03   1.485871335763985E-03   1.534708664511162E-03
   1.584934729993027E-03   1.636574850690486E-03   1.689653786355783E-03
   1.744195640595025E-03   1.800223756671228E-03   1.857760606218438E-03
   1.916827670553649E-03   1.977445314270257E-03   2.039632650794765E-03
   2.103407399588583E-03   2.168785734677521E-03   2.235782124195025E-03
   2.304409160630296E-03   2.374677381479486E-03   2.446595080008656E-03
   2.520168105849395E-03   2.595399655164163E-03   2.672290050137821E-03
   2.750836507574455E-03   2.831032896406494E-03   2.912869483954287E-03
   2.996332670811430E-03   3.081404714273280E-03   3.168063440273686E-03
   3.256281943849916E-03   3.346028278216293E-03   3.437265132596018E-03
   3.529949499037095E-03   3.624032328522878E-03   3.719458176782394E-03
   3.816164840308716E-03   3.914082983208058E-03   4.013135755627248E-03
   4.113238404643229E-03   4.214297878647582E-03   4.316212426419767E-03
   4.418871192257963E-03   4.522153808725063E-03   4.625929988770129E-03
   4.730059119204279E-03   4.834389857742815E-03   4.938759736074900E-03
   5.042994771687282E-03   5.146909091449140E-03   5.250304570263343E-03
   5.352970488401750E-03   5.454683211471679E-03   5.555205897304580E-03
   5.654288234415827E-03   5.751666217056921E-03   5.847061962264120E-03
   5.940183574701828E-03   6.030725065500970E-03   6.118366331699643E-03
   6.202773203304252E-03   6.283597565397914E-03   6.360477563127633E-03
   6.433037897796156E-03   6.500890222663468E-03   6.563633647421270E-03
   6.620855360632793E-03   6.672131379723902E-03   6.717027438359629E-03
   6.755100021233394E-03   6.785897556424466E-03   6.808961775529059E-03
   6.823829251730680E-03   6.830033125830664E-03   6.827105029995237E-03
   6.814577218574861E-03   6.791984914797094E-03   6.758868881407195E-03
   6.714778222411504E-03   6.659273421946768E-03   6.591929624932069E-03
   6.512340162537546E-03   6.420120323602180E-03   6.314911370929608E-03
   6.196384798863499E-03   6.064246825669670E-03   5.918243111011621E-03
   5.758163685178079E-03   5.583848072689284E-03   5.395190588459872E-03
   5.192145779816439E-03   4.974733982356209E-03   4.743046951884673E-03
   4.497253528494502E-03   4.237605282260898E-03   3.964442083049901E-03
   3.678197529609379E-03   3.379404165477589E-03   3.068698401370322E-03
   2.746825055672731E-03   2.414641416559279E-03   2.073120721220143E-03
   1.723354939815842E-03   1.366556744282762E-03   1.004060535159270E-03
   6.373223934053153E-04   2.679188190026736E-04  -1.024558857907389E-04
  -4.719937329837930E-04  -8.387788100577597E-04  -1.200794828833403E-03
  -1.555934600462597E-03  -1.902011567393861E-03  -2.236773512025841E-03
  -2.557918546665842E-03  -2.863113469889240E-03  -3.150014549994227E-03
  -3.416290766528349E-03  -3.659649505402329E-03  -3.877864661539180E-03
  -4.068807055012668E-03  -4.230477011982607E-03  -4.361038900316763E-03
  -4.458857341610557E-03  -4.522534746564829E-03  -4.550949739737787E-03
  -4.543295953172028E-03  -4.499120577207590E-03  -4.418361962134973E-03
  -4.301385467784708E-03  -4.149016661646489E-03  -3.962570872049587E-03
  -3.743878014160781E-03  -3.495301526401423E-03  -3.219750187182985E-03
  -2.920681530948885E-03  -2.602095553222118E-03  -2.268517391975998E-03
  -1.924967702866698E-03  -1.576919514690297E-03  -1.230240465058636E-03
  -8.911194809692932E-04  -5.659771907440868E-04  -2.613596384043928E-04
   1.618477611600808E-05   2.602447835482078E-04   4.647013132464258E-04
   6.238967245188205E-04   7.328161380785875E-04   7.872780913810761E-04
   7.841309693315196E-04   7.250183092568363E-04   6.263418403521098E-04
   5.066448745883328E-04   3.820683285558901E-04   2.656721953104152E-04
   1.669207268980843E-04   9.137451239887850E-05   4.062674144741929E-05
   1.251196460821946E-05   1.603468513106110E-06   0.000000000000000E+00
   0.000000000000000E+00   0.000000000000000E+00   0.000000000000000E+00
   0.000000000000000E+00   0.000000000000000E+00   0.000000000000000E+00
   0.000000000000000E+00   0.000000000000000E+00   0.000000000000000E+00
   0.000000000000000E+00   0.000000000000000E+00   0.000000000000000E+00
   0.000000000000000E+00   0.000000000000000E+00   0.000000000000000E+00
   0.000000000000000E+00   0.000000000000000E+00   0.000000000000000E+00
   0.000000000000000E+00   0.000000000000000E+00   0.000000000000000E+00
   0.000000000000000E+00   0.000000000000000E+00   0.000000000000000E+00
   0.000000000000000E+00   0.000000000000000E+00   0.000000000000000E+00
   0.000000000000000E+00   0.000000000000000E+00   0.000000000000000E+00
   0.000000000000000E+00   0.000000000000000E+00   0.000000000000000E+00
   0.000000000000000E+00   0.000000000000000E+00   0.000000000000000E+00
   0.000000000000000E+00   0.000000000000000E+00   0.000000000000000E+00
   0.000000000000000E+00   0.000000000000000E+00   0.000000000000000E+00
   0.000000000000000E+00   0.000000000000000E+00   0.000000000000000E+00
   0.000000000000000E+00   0.000000000000000E+00   0.000000000000000E+00
   0.000000000000000E+00   0.000000000000000E+00   0.000000000000000E+00
   0.000000000000000E+00   0.000000000000000E+00   0.000000000000000E+00
   0.000000000000000E+00   0.000000000000000E+00   0.000000000000000E+00
   0.000000000000000E+00   0.000000000000000E+00   0.000000000000000E+00
   0.000000000000000E+00   0.000000000000000E+00   0.000000000000000E+00
   0.000000000000000E+00   0.000000000000000E+00   0.000000000000000E+00
   0.000000000000000E+00   0.000000000000000E+00   0.000000000000000E+00
   0.000000000000000E+00   0.000000000000000E+00   0.000000000000000E+00
   0.000000000000000E+00   0.000000000000000E+00   0.000000000000000E+00
   0.000000000000000E+00   0.000000000000000E+00   0.000000000000000E+00
   0.000000000000000E+00   0.000000000000000E+00   0.000000000000000E+00
   0.000000000000000E+00   0.000000000000000E+00   0.000000000000000E+00
   0.000000000000000E+00   0.000000000000000E+00   0.000000000000000E+00
   0.000000000000000E+00   0.000000000000000E+00   0.000000000000000E+00
   0.000000000000000E+00   0.000000000000000E+00   0.000000000000000E+00
   0.000000000000000E+00   0.000000000000000E+00   0.000000000000000E+00
   0.000000000000000E+00   0.000000000000000E+00   0.000000000000000E+00
   0.000000000000000E+00   0.000000000000000E+00   0.000000000000000E+00
   0.000000000000000E+00   0.000000000000000E+00   0.000000000000000E+00
   0.000000000000000E+00   0.000000000000000E+00   0.000000000000000E+00
   0.000000000000000E+00   0.000000000000000E+00   0.000000000000000E+00
   0.000000000000000E+00   0.000000000000000E+00   0.000000000000000E+00
   0.000000000000000E+00   0.000000000000000E+00   0.000000000000000E+00
   0.000000000000000E+00   0.000000000000000E+00   0.000000000000000E+00
   0.000000000000000E+00   0.000000000000000E+00   0.000000000000000E+00
   0.000000000000000E+00   0.000000000000000E+00   0.000000000000000E+00
   0.000000000000000E+00   0.000000000000000E+00   0.000000000000000E+00
   0.000000000000000E+00   0.000000000000000E+00   0.000000000000000E+00
   0.000000000000000E+00   0.000000000000000E+00   0.000000000000000E+00
   0.000000000000000E+00   0.000000000000000E+00   0.000000000000000E+00
   0.000000000000000E+00   0.000000000000000E+00   0.000000000000000E+00
   0.000000000000000E+00   0.000000000000000E+00   0.000000000000000E+00
   0.000000000000000E+00   0.000000000000000E+00   0.000000000000000E+00
   0.000000000000000E+00   0.000000000000000E+00   0.000000000000000E+00
   0.000000000000000E+00   0.000000000000000E+00   0.000000000000000E+00
   0.000000000000000E+00   0.000000000000000E+00   0.000000000000000E+00
   0.000000000000000E+00   0.000000000000000E+00   0.000000000000000E+00
   0.000000000000000E+00   0.000000000000000E+00   0.000000000000000E+00
   0.000000000000000E+00   0.000000000000000E+00   0.000000000000000E+00
   0.000000000000000E+00   0.000000000000000E+00   0.000000000000000E+00
   0.000000000000000E+00   0.000000000000000E+00   0.000000000000000E+00
   0.000000000000000E+00   0.000000000000000E+00   0.000000000000000E+00
   0.000000000000000E+00   0.000000000000000E+00   0.000000000000000E+00
   0.000000000000000E+00   0.000000000000000E+00   0.000000000000000E+00
   0.000000000000000E+00   0.000000000000000E+00   0.000000000000000E+00
   0.000000000000000E+00   0.000000000000000E+00   0.000000000000000E+00
   0.000000000000000E+00   0.000000000000000E+00   0.000000000000000E+00
   0.000000000000000E+00   0.000000000000000E+00   0.000000000000000E+00
   0.000000000000000E+00   0.000000000000000E+00   0.000000000000000E+00
   0.000000000000000E+00   0.000000000000000E+00   0.000000000000000E+00
   0.000000000000000E+00   0.000000000000000E+00   0.000000000000000E+00
   0.000000000000000E+00   0.000000000000000E+00   0.000000000000000E+00
   0.000000000000000E+00   0.000000000000000E+00   0.000000000000000E+00
   0.000000000000000E+00   0.000000000000000E+00   0.000000000000000E+00
   0.000000000000000E+00   0.000000000000000E+00   0.000000000000000E+00
   0.000000000000000E+00   0.000000000000000E+00   0.000000000000000E+00
   0.000000000000000E+00   0.000000000000000E+00   0.000000000000000E+00
   0.000000000000000E+00   0.000000000000000E+00   0.000000000000000E+00
   0.000000000000000E+00   0.000000000000000E+00   0.000000000000000E+00
   0.000000000000000E+00   0.000000000000000E+00   0.000000000000000E+00
   0.000000000000000E+00   0.000000000000000E+00   0.000000000000000E+00
   0.000000000000000E+00   0.000000000000000E+00   0.000000000000000E+00
   0.000000000000000E+00   0.000000000000000E+00   0.000000000000000E+00
   0.000000000000000E+00   0.000000000000000E+00   0.000000000000000E+00
   0.000000000000000E+00   0.000000000000000E+00   0.000000000000000E+00
   0.000000000000000E+00   0.000000000000000E+00   0.000000000000000E+00
   0.000000000000000E+00   0.000000000000000E+00   0.000000000000000E+00
   0.000000000000000E+00   0.000000000000000E+00   0.000000000000000E+00
   0.000000000000000E+00   0.000000000000000E+00   0.000000000000000E+00
   0.000000000000000E+00   0.000000000000000E+00   0.000000000000000E+00
   0.000000000000000E+00   0.000000000000000E+00   0.000000000000000E+00
   0.000000000000000E+00   0.000000000000000E+00   0.000000000000000E+00
   0.000000000000000E+00   0.000000000000000E+00   0.000000000000000E+00
   0.000000000000000E+00   0.000000000000000E+00   0.000000000000000E+00
   0.000000000000000E+00   0.000000000000000E+00   0.000000000000000E+00
   0.000000000000000E+00   0.000000000000000E+00   0.000000000000000E+00
   0.000000000000000E+00   0.000000000000000E+00   0.000000000000000E+00
   0.000000000000000E+00   0.000000000000000E+00   0.000000000000000E+00
   0.000000000000000E+00   0.000000000000000E+00   0.000000000000000E+00
   0.000000000000000E+00   0.000000000000000E+00   0.000000000000000E+00
   0.000000000000000E+00   0.000000000000000E+00   0.000000000000000E+00
   0.000000000000000E+00   0.000000000000000E+00   0.000000000000000E+00
   0.000000000000000E+00   0.000000000000000E+00   0.000000000000000E+00
   0.000000000000000E+00   0.000000000000000E+00   0.000000000000000E+00
   0.000000000000000E+00   0.000000000000000E+00   0.000000000000000E+00
   0.000000000000000E+00   0.000000000000000E+00   0.000000000000000E+00
   0.000000000000000E+00   0.000000000000000E+00   0.000000000000000E+00
   0.000000000000000E+00
      </PP_QIJL.2.4.1>
      <PP_QIJL.3.3.0 first_index="3" second_index="3" composite_index="6" angular_momentum="0" size="1135">
   7.981492846115890E-10   8.183545296605292E-10   8.390712729083696E-10
   8.603124629929054E-10   8.820913763482249E-10   9.044216255029004E-10
   9.273171675882634E-10   9.507923130620635E-10   9.748617346529624E-10
   9.995404765314732E-10   1.024843963713041E-09   1.050788011699182E-09
   1.077388836362681E-09   1.104663064083036E-09   1.132627742138486E-09
   1.161300349361103E-09   1.190698807061627E-09   1.220841490230869E-09
   1.251747239024662E-09   1.283435370539585E-09   1.315925690886747E-09
   1.349238507571262E-09   1.383394642185087E-09   1.418415443421185E-09
   1.454322800417159E-09   1.491139156436648E-09   1.528887522897103E-09
   1.567591493752658E-09   1.607275260241107E-09   1.647963626004219E-09
   1.689682022590793E-09   1.732456525352205E-09   1.776313869740335E-09
   1.821281468018083E-09   1.867387426392921E-09   1.914660562584163E-09
   1.963130423834969E-09   2.012827305380318E-09   2.063782269382502E-09
   2.116027164345980E-09   2.169594645023696E-09   2.224518192827357E-09
   2.280832136754381E-09   2.338571674844624E-09   2.397772896180282E-09
   2.458472803442705E-09   2.520709336040270E-09   2.584521393821717E-09
   2.649948861389791E-09   2.717032633030407E-09   2.785814638272860E-09
   2.856337868097125E-09   2.928646401804597E-09   3.002785434569037E-09
   3.078801305685024E-09   3.156741527531454E-09   3.236654815268303E-09
   3.318591117285142E-09   3.402601646420466E-09   3.488738911971358E-09
   3.577056752513431E-09   3.667610369551665E-09   3.760456362023086E-09
   3.855652761672887E-09   3.953259069326128E-09   4.053336292077584E-09
   4.155946981423135E-09   4.261155272356420E-09   4.369026923455207E-09
   4.479629357982607E-09   4.593031706028698E-09   4.709304847719019E-09
   4.828521457516865E-09   4.950756049647105E-09   5.076085024669933E-09
   5.204586717233557E-09   5.336341445035834E-09   5.471431559025331E-09
   5.609941494873235E-09   5.751957825748295E-09   5.897569316427710E-09
   6.046866978777896E-09   6.199944128639724E-09   6.356896444153800E-09
   6.517822025562304E-09   6.682821456524620E-09   6.851997866985261E-09
   7.025456997633259E-09   7.203307265993340E-09   7.385659834190242E-09
   7.572628678428420E-09   7.764330660230669E-09   7.960885599480171E-09
   8.162416349311564E-09   8.369048872897948E-09   8.580912322181615E-09
   8.798139118598018E-09   9.020865035843141E-09   9.249229284736173E-09
   9.483374600230542E-09   9.723447330627470E-09   9.969597529048130E-09
   1.022197904722133E-08   1.048074963164544E-08   1.074607102218479E-08
   1.101810905316174E-08   1.129703375700817E-08   1.158301947054079E-08
   1.187624494392680E-08   1.217689345240809E-08   1.248515291085358E-08
   1.280121599121158E-08   1.312528024293544E-08   1.345754821645768E-08
   1.379822758979002E-08   1.414753129832804E-08   1.450567766794206E-08
   1.487289055143712E-08   1.524939946846740E-08   1.563543974899264E-08
   1.603125268036606E-08   1.643708565814586E-08   1.685319234072446E-08
   1.727983280787216E-08   1.771727372329445E-08   1.816578850130415E-08
   1.862565747771309E-08   1.909716808504983E-08   1.958061503221290E-08
   2.007630048867214E-08   2.058453427333275E-08   2.110563404818068E-08
   2.163992551683004E-08   2.218774262809663E-08   2.274942778472512E-08
   2.332533205739972E-08   2.391581540417285E-08   2.452124689544850E-08
   2.514200494466090E-08   2.577847754479299E-08   2.643106251088192E-08
   2.710016772866395E-08   2.778621140951344E-08   2.848962235183564E-08
   2.921084020907674E-08   2.995031576451813E-08   3.070851121302736E-08
   3.148590044994142E-08   3.228296936726289E-08   3.310021615735456E-08
   3.393815162432142E-08   3.479729950327572E-08   3.567819678768376E-08
   3.658139406499948E-08   3.750745586079475E-08   3.845696099160041E-08
   3.943050292668025E-08   4.042869015896258E-08   4.145214658536189E-08
   4.250151189672854E-08   4.357744197766900E-08   4.468060931648838E-08
   4.581170342550972E-08   4.697143127203362E-08   4.816051772020800E-08
   4.937970598408200E-08   5.062975809213097E-08   5.191145536353836E-08
   5.322559889653590E-08   5.457301006910561E-08   5.595453105235555E-08
   5.737102533689374E-08   5.882337827252421E-08   6.031249762160687E-08
   6.183931412642523E-08   6.340478209091477E-08   6.500987997712062E-08
   6.665561101675068E-08   6.834300383821188E-08   7.007311310951924E-08
   7.184702019747775E-08   7.366583384355407E-08   7.553069085685401E-08
   7.744275682464441E-08   7.940322684086076E-08   8.141332625305449E-08
   8.347431142825193E-08   8.558747053819692E-08   8.775412436447257E-08
   8.997562712400460E-08   9.225336731545834E-08   9.458876858706594E-08
   9.698329062641690E-08   9.943843007277573E-08   1.019557214524932E-07
   1.045367381380943E-07   1.071830933316483E-07   1.098964410730270E-07
   1.126784772736887E-07   1.155309407766309E-07   1.184556144431707E-07
   1.214543262672416E-07   1.245289505178904E-07   1.276814089106990E-07
   1.309136718088584E-07   1.342277594546424E-07   1.376257432320597E-07
   1.411097469614625E-07   1.446819482269288E-07   1.483445797372450E-07
   1.520999307213357E-07   1.559503483590224E-07   1.598982392479923E-07
   1.639460709079048E-07   1.680963733225708E-07   1.723517405211651E-07
   1.767148321994703E-07   1.811883753821529E-07   1.857751661271184E-07
   1.904780712730095E-07   1.953000302309337E-07   2.002440568215499E-07
   2.053132411586499E-07   2.105107515804217E-07   2.158398366295980E-07
   2.213038270837210E-07   2.269061380368062E-07   2.326502710336890E-07
   2.385398162584008E-07   2.445784547779371E-07   2.507699608428136E-07
   2.571182042458637E-07   2.636271527407300E-07   2.703008745215782E-07
   2.771435407655772E-07   2.841594282397236E-07   2.913529219736626E-07
   2.987285180001473E-07   3.062908261648704E-07   3.140445730074143E-07
   3.219946047151141E-07   3.301458901516975E-07   3.385035239625673E-07
   3.470727297586915E-07   3.558588633810728E-07   3.648674162478448E-07
   3.741040187860842E-07   3.835744439504800E-07   3.932846108310631E-07
   4.032405883522450E-07   4.134485990654767E-07   4.239150230379018E-07
   4.346464018394235E-07   4.456494426306858E-07   4.569310223545163E-07
   4.684981920334482E-07   4.803581811760102E-07   4.925184022945303E-07
   5.049864555372802E-07   5.177701334378527E-07   5.308774257847310E-07
   5.443165246141044E-07   5.580958293290337E-07   5.722239519481750E-07
   5.867097224873339E-07   6.015621944772079E-07   6.167906506207724E-07
   6.324046085938305E-07   6.484138269923577E-07   6.648283114303549E-07
   6.816583207920039E-07   6.989143736420566E-07   7.166072547984219E-07
   7.347480220710917E-07   7.533480131715904E-07   7.724188527972630E-07
   7.919724598948365E-07   8.120210551077740E-07   8.325771684120805E-07
   8.536536469453293E-07   8.752636630337747E-07   8.974207224225969E-07
   9.201386727143797E-07   9.434317120211110E-07   9.673143978351023E-07
   9.918016561243494E-07   1.016908790658035E-06   1.042651492567963E-06
   1.069045850151919E-06   1.096108358925059E-06   1.123855931925593E-06
   1.152305910281213E-06   1.181476074042835E-06   1.211384653292428E-06
   1.242050339531869E-06   1.273492297359887E-06   1.305730176444444E-06
   1.338784123797957E-06   1.372674796363057E-06   1.407423373916733E-06
   1.443051572300876E-06   1.479581656987523E-06   1.517036456987208E-06
   1.555439379109143E-06   1.594814422582079E-06   1.635186194044982E-06
   1.676579922916877E-06   1.719021477155414E-06   1.762537379414011E-06
   1.807154823607630E-06   1.852901691897492E-06   1.899806572105368E-06
   1.947898775568225E-06   1.997208355444427E-06   2.047766125482852E-06
   2.099603679266612E-06   2.152753409943411E-06   2.207248530454776E-06
   2.263123094276804E-06   2.320412016685322E-06   2.379151096558697E-06
   2.439377038731898E-06   2.501127476915698E-06   2.564440997195309E-06
   2.629357162123058E-06   2.695916535420148E-06   2.764160707302773E-06
   2.834132320448482E-06   2.905875096618848E-06   2.979433863955060E-06
   3.054854584963393E-06   3.132184385207961E-06   3.211471582728626E-06
   3.292765718202346E-06   3.376117585866670E-06   3.461579265224727E-06
   3.549204153551232E-06   3.639046999219907E-06   3.731163935872896E-06
   3.825612517453460E-06   3.922451754123734E-06   4.021742149089749E-06
   4.123545736356782E-06   4.227926119438278E-06   4.334948511042514E-06
   4.444679773761612E-06   4.557188461788072E-06   4.672544863684838E-06
   4.790821046235369E-06   4.912090899400892E-06   5.036430182412806E-06
   5.163916571028675E-06   5.294629705981276E-06   5.428651242650615E-06
   5.566064901989724E-06   5.706956522735824E-06   5.851414114939104E-06
   5.999527914842400E-06   6.151390441145616E-06   6.307096552689807E-06
   6.466743507596643E-06   6.630431023899632E-06   6.798261341704927E-06
   6.970339286919902E-06   7.146772336588986E-06   7.327670685877181E-06
   7.513147316742449E-06   7.703318068339710E-06   7.898301709199590E-06
   8.098220011226689E-06   8.303197825563000E-06   8.513363160363087E-06
   8.728847260529298E-06   8.949784689455922E-06   9.176313412832719E-06
   9.408574884559585E-06   9.646714134824930E-06   9.890879860402400E-06
   1.014122451722117E-05   1.039790441526691E-05   1.066107981587178E-05
   1.093091503145299E-05   1.120757852776166E-05   1.149124302870428E-05
   1.178208562380138E-05   1.208028787834925E-05   1.238603594635234E-05
   1.269952068629526E-05   1.302093777982568E-05   1.335048785342057E-05
   1.368837660311014E-05   1.403481492233613E-05   1.439001903302196E-05
   1.475421061993553E-05   1.512761696842611E-05   1.551047110561970E-05
   1.590301194515885E-05   1.630548443557501E-05   1.671813971238391E-05
   1.714123525399658E-05   1.757503504154059E-05   1.801980972268885E-05
   1.847583677959532E-05   1.894340070103953E-05   1.942279315888440E-05
   1.991431318895411E-05   2.041826737644177E-05   2.093497004595851E-05
   2.146474345633945E-05   2.200791800032388E-05   2.256483240922993E-05
   2.313583396274764E-05   2.372127870397591E-05   2.432153165983361E-05
   2.493696706697659E-05   2.556796860335658E-05   2.621492962556081E-05
   2.687825341207419E-05   2.755835341261023E-05   2.825565350365906E-05
   2.897058825040561E-05   2.970360317517400E-05   3.045515503255760E-05
   3.122571209139906E-05   3.201575442378735E-05   3.282577420124349E-05
   3.365627599827024E-05   3.450777710344526E-05   3.538080783824186E-05
   3.627591188376507E-05   3.719364661559541E-05   3.813458344693776E-05
   3.909930818027573E-05   4.008842136773876E-05   4.110253868039208E-05
   4.214229128666537E-05   4.320832624014105E-05   4.430130687692689E-05
   4.542191322284490E-05   4.657084241067193E-05   4.774880910767308E-05
   4.895654595367557E-05   5.019480400993382E-05   5.146435321904598E-05
   5.276598287618345E-05   5.410050211190426E-05   5.546874038682599E-05
   5.687154799843829E-05   5.830979660034504E-05   5.978437973422858E-05
   6.129621337483702E-05   6.284623648830229E-05   6.443541160410078E-05
   6.606472540097907E-05   6.773518930717046E-05   6.944784011523682E-05
   7.120374061187744E-05   7.300398022305129E-05   7.484967567477144E-05
   7.674197166993141E-05   7.868204158153539E-05   8.067108816271118E-05
   8.271034427388818E-05   8.480107362753788E-05   8.694457155087550E-05
   8.914216576693218E-05   9.139521719441661E-05   9.370512076678845E-05
   9.607330627098038E-05   9.850123920620864E-05   1.009904216633222E-04
   1.035423932251511E-04   1.061587318883175E-04   1.088410550069893E-04
   1.115910202590572E-04   1.144103266352299E-04   1.173007154515495E-04
   1.202639713858334E-04   1.233019235385680E-04   1.264164465187762E-04
   1.296094615553985E-04   1.328829376347315E-04   1.362388926644770E-04
   1.396793946649658E-04   1.432065629881268E-04   1.468225695647784E-04
   1.505296401808357E-04   1.543300557830226E-04   1.582261538146995E-04
   1.622203295824165E-04   1.663150376538123E-04   1.705127932874894E-04
   1.748161738954964E-04   1.792278205390673E-04   1.837504394582628E-04
   1.883868036361714E-04   1.931397543983372E-04   1.980122030480762E-04
   2.030071325383652E-04   2.081275991809774E-04   2.133767343935518E-04
   2.187577464852876E-04   2.242739224819521E-04   2.299286299909049E-04
   2.357253191068328E-04   2.416675243588976E-04   2.477588667000013E-04
   2.540030555388641E-04   2.604038908156263E-04   2.669652651216669E-04
   2.736911658643402E-04   2.805856774773262E-04   2.876529836772763E-04
   2.948973697674500E-04   3.023232249890097E-04   3.099350449206440E-04
   3.177374339271814E-04   3.257351076578299E-04   3.339328955946876E-04
   3.423357436521331E-04   3.509487168276979E-04   3.597770019050043E-04
   3.688259102093210E-04   3.781008804162819E-04   3.876074814142701E-04
   3.973514152209497E-04   4.073385199543990E-04   4.175747728592466E-04
   4.280662933882058E-04   4.388193463393269E-04   4.498403450492664E-04
   4.611358546428176E-04   4.727125953388841E-04   4.845774458130427E-04
   4.967374466167611E-04   5.091998036532821E-04   5.219718917101148E-04
   5.350612580479840E-04   5.484756260460382E-04   5.622228989029935E-04
   5.763111633938256E-04   5.907486936815123E-04   6.055439551832120E-04
   6.207056084901792E-04   6.362425133405653E-04   6.521637326441422E-04
   6.684785365578531E-04   6.851964066109230E-04   7.023270398781420E-04
   7.198803531997440E-04   7.378664874461325E-04   7.562958118255286E-04
   7.751789282324024E-04   7.945266756343595E-04   8.143501344949125E-04
   8.346606312293484E-04   8.554697426906427E-04   8.767893006821014E-04
   8.986313964931612E-04   9.210083854544492E-04   9.439328915079049E-04
   9.674178117874536E-04   9.914763212053299E-04   1.016121877038840E-03
   1.041368223511907E-03   1.067229396365372E-03   1.093719727409584E-03
   1.120853849052322E-03   1.148646698794684E-03   1.177113523687004E-03
   1.206269884736348E-03   1.236131661256611E-03   1.266715055151584E-03
   1.298036595120806E-03   1.330113140777322E-03   1.362961886665786E-03
   1.396600366168664E-03   1.431046455287451E-03   1.466318376285145E-03
   1.502434701175268E-03   1.539414355041914E-03   1.577276619174384E-03
   1.616041133998950E-03   1.655727901789364E-03   1.696357289136600E-03
   1.737950029157234E-03   1.780527223418725E-03   1.824110343558572E-03
   1.868721232573169E-03   1.914382105750731E-03   1.961115551221339E-03
   2.008944530095689E-03   2.057892376162565E-03   2.107982795113559E-03
   2.159239863261798E-03   2.211688025719787E-03   2.265352093999646E-03
   2.320257242997090E-03   2.376429007318657E-03   2.433893276909520E-03
   2.492676291937159E-03   2.552804636883980E-03   2.614305233799529E-03
   2.677205334660804E-03   2.741532512786397E-03   2.807314653247815E-03
   2.874579942218615E-03   2.943356855199065E-03   3.013674144051431E-03
   3.085560822777706E-03   3.159046151968748E-03   3.234159621850477E-03
   3.310930933849447E-03   3.389389980596867E-03   3.469566824286415E-03
   3.551491673297707E-03   3.635194856993519E-03   3.720706798594913E-03
   3.808057986034680E-03   3.897278940685194E-03   3.988400183852841E-03
   4.081452200926771E-03   4.176465403065414E-03   4.273470086299787E-03
   4.372496387928016E-03   4.473574240070872E-03   4.576733320253533E-03
   4.682002998873778E-03   4.789412283412319E-03   4.898989759235800E-03
   5.010763526838264E-03   5.124761135361932E-03   5.241009512233061E-03
   5.359534888743987E-03   5.480362721407259E-03   5.603517608903118E-03
   5.729023204436772E-03   5.856902123317060E-03   5.987175845563845E-03
   6.119864613346813E-03   6.254987323054233E-03   6.392561411786415E-03
   6.532602738064453E-03   6.675125456542196E-03   6.820141886505487E-03
   6.967662373940718E-03   7.117695146952615E-03   7.270246164308913E-03
   7.425318956889646E-03   7.582914461817390E-03   7.743030849045913E-03
   7.905663340186050E-03   8.070804019348982E-03   8.238441635791710E-03
   8.408561398152499E-03   8.581144760070675E-03   8.756169196992101E-03
   8.933607973969304E-03   9.113429904276889E-03   9.295599098673300E-03
   9.480074705154898E-03   9.666810639064268E-03   9.855755303432235E-03
   1.004685129945509E-02   1.024003512703078E-02   1.043523687530508E-02
   1.063237990320814E-02   1.083138050999395E-02   1.103214759583302E-02
   1.123458231254763E-02   1.143857770462403E-02   1.164401834068537E-02
   1.185077993566139E-02   1.205872896395099E-02   1.226772226393667E-02
   1.247760663427984E-02   1.268821842250204E-02   1.289938310643800E-02
   1.311091486923672E-02   1.332261616868083E-02   1.353427730169911E-02
   1.374567596505788E-02   1.395657681333497E-02   1.416673101541033E-02
   1.437587581084140E-02   1.458373406763962E-02   1.479001384311937E-02
   1.499440794965631E-02   1.519659352736894E-02   1.539623162592330E-02
   1.559296679785859E-02   1.578642670604099E-02   1.597622174807132E-02
   1.616194470070582E-02   1.634317038759010E-02   1.651945537386217E-02
   1.669033769144544E-02   1.685533659912902E-02   1.701395238182119E-02
   1.716566619365858E-02   1.730993994996190E-02   1.744621627334591E-02
   1.757391849961478E-02   1.769245074940710E-02   1.780119807189042E-02
   1.789952666714703E-02   1.798678419423562E-02   1.806230017225566E-02
   1.812538648208257E-02   1.817533797677521E-02   1.821143320898395E-02
   1.823293528400045E-02   1.823909284738689E-02   1.822914121639812E-02
   1.820230366465907E-02   1.815779286977671E-02   1.809481253374432E-02
   1.801255918612951E-02   1.791022418011708E-02   1.778699589149797E-02
   1.764206213064390E-02   1.747461277737698E-02   1.728384264842282E-02
   1.706895460681222E-02   1.682916292216140E-02   1.656369689019737E-02
   1.627180471919203E-02   1.595275769011274E-02   1.560585459626857E-02
   1.523042646702137E-02   1.482584157871653E-02   1.439151075435589E-02
   1.392689295166995E-02   1.343150113712356E-02   1.290490844100100E-02
   1.234675458603625E-02   1.175675257907052E-02   1.113469565191740E-02
   1.048046443397163E-02   9.794034335111130E-03   9.075483113087691E-03
   8.324998594877503E-03   7.542886516365804E-03   6.729578439252338E-03
   5.885639698209140E-03   5.011777325084795E-03   4.108847890355313E-03
   3.177865195090447E-03   2.220007739449891E-03   1.236625886203810E-03
   2.292486300119224E-04  -8.004101247349425E-04  -1.850445882733094E-03
  -2.918758586523271E-03  -4.003048476424249E-03  -5.100812910650924E-03
  -6.209344282055998E-03  -7.325729174868557E-03  -8.446848911086709E-03
  -9.569381641581123E-03  -1.068980614129965E-02  -1.180440747095736E-02
  -1.290928466899117E-02  -1.400036063707417E-02  -1.507339437977704E-02
  -1.612399575372423E-02  -1.714764287343911E-02  -1.813970230962706E-02
  -1.909545220053391E-02  -2.001010837779847E-02  -2.087885358452246E-02
  -2.169686983466005E-02  -2.245937392891777E-02  -2.316165610275484E-02
  -2.379912173644424E-02  -2.436733600521081E-02  -2.486207128895018E-02
  -2.527935709582216E-02  -2.561553218204303E-02  -2.586729847155710E-02
  -2.603177629418814E-02  -2.610656036975854E-02  -2.608977586915733E-02
  -2.598013378229669E-02  -2.577698471847290E-02  -2.548037015829886E-02
  -2.509107006990373E-02  -2.461064569768605E-02  -2.404147623215076E-02
  -2.338678797729372E-02  -2.265067455110327E-02  -2.183810658900473E-02
  -2.095492937391565E-02  -2.000784679493342E-02  -1.900439004491417E-02
  -1.795286951108398E-02  -1.686230839849320E-02  -1.574235675992857E-02
  -1.460318479435061E-02  -1.345535452550440E-02  -1.230966928928900E-02
  -1.117700084859316E-02  -1.006809442262543E-02  -8.993352468284702E-03
  -7.962598686343011E-03  -6.984824445754930E-03  -6.067920623553300E-03
  -5.218398740866159E-03  -4.441106229523220E-03  -3.738941676372794E-03
  -3.112576947019018E-03  -2.560194165246141E-03  -2.077246591140284E-03
  -1.656253465853852E-03  -1.288788449786943E-03  -9.726722993863290E-04
  -7.069541917462119E-04  -4.899169743935727E-04  -3.190164973171650E-04
  -1.908195730268569E-04  -1.009407918686200E-04  -4.397864234501059E-05
  -1.345159671373164E-05  -1.735024959037545E-06   1.110223024625157E-16
   0.000000000000000E+00   0.000000000000000E+00   0.000000000000000E+00
   0.000000000000000E+00   0.000000000000000E+00   0.000000000000000E+00
   0.000000000000000E+00   0.000000000000000E+00   0.000000000000000E+00
   0.000000000000000E+00   0.000000000000000E+00   0.000000000000000E+00
   0.000000000000000E+00   0.000000000000000E+00   0.000000000000000E+00
   0.000000000000000E+00   0.000000000000000E+00   0.000000000000000E+00
   0.000000000000000E+00   0.000000000000000E+00   0.000000000000000E+00
   0.000000000000000E+00   0.000000000000000E+00   0.000000000000000E+00
   0.000000000000000E+00   0.000000000000000E+00   0.000000000000000E+00
   0.000000000000000E+00   0.000000000000000E+00   0.000000000000000E+00
   0.000000000000000E+00   0.000000000000000E+00   0.000000000000000E+00
   0.000000000000000E+00   0.000000000000000E+00   0.000000000000000E+00
   0.000000000000000E+00   0.000000000000000E+00   0.000000000000000E+00
   0.000000000000000E+00   0.000000000000000E+00   0.000000000000000E+00
   0.000000000000000E+00   0.000000000000000E+00   0.000000000000000E+00
   0.000000000000000E+00   0.000000000000000E+00   0.000000000000000E+00
   0.000000000000000E+00   0.000000000000000E+00   0.000000000000000E+00
   0.000000000000000E+00   0.000000000000000E+00   0.000000000000000E+00
   0.000000000000000E+00   0.000000000000000E+00   0.000000000000000E+00
   0.000000000000000E+00   0.000000000000000E+00   0.000000000000000E+00
   0.000000000000000E+00   0.000000000000000E+00   0.000000000000000E+00
   0.000000000000000E+00   0.000000000000000E+00   0.000000000000000E+00
   0.000000000000000E+00   0.000000000000000E+00   0.000000000000000E+00
   0.000000000000000E+00   0.000000000000000E+00   0.000000000000000E+00
   0.000000000000000E+00   0.000000000000000E+00   0.000000000000000E+00
   0.000000000000000E+00   0.000000000000000E+00   0.000000000000000E+00
   0.000000000000000E+00   0.000000000000000E+00   0.000000000000000E+00
   0.000000000000000E+00   0.000000000000000E+00   0.000000000000000E+00
   0.000000000000000E+00   0.000000000000000E+00   0.000000000000000E+00
   0.000000000000000E+00   0.000000000000000E+00   0.000000000000000E+00
   0.000000000000000E+00   0.000000000000000E+00   0.000000000000000E+00
   0.000000000000000E+00   0.000000000000000E+00   0.000000000000000E+00
   0.000000000000000E+00   0.000000000000000E+00   0.000000000000000E+00
   0.000000000000000E+00   0.000000000000000E+00   0.000000000000000E+00
   0.000000000000000E+00   0.000000000000000E+00   0.000000000000000E+00
   0.000000000000000E+00   0.000000000000000E+00   0.000000000000000E+00
   0.000000000000000E+00   0.000000000000000E+00   0.000000000000000E+00
   0.000000000000000E+00   0.000000000000000E+00   0.000000000000000E+00
   0.000000000000000E+00   0.000000000000000E+00   0.000000000000000E+00
   0.000000000000000E+00   0.000000000000000E+00   0.000000000000000E+00
   0.000000000000000E+00   0.000000000000000E+00   0.000000000000000E+00
   0.000000000000000E+00   0.000000000000000E+00   0.000000000000000E+00
   0.000000000000000E+00   0.000000000000000E+00   0.000000000000000E+00
   0.000000000000000E+00   0.000000000000000E+00   0.000000000000000E+00
   0.000000000000000E+00   0.000000000000000E+00   0.000000000000000E+00
   0.000000000000000E+00   0.000000000000000E+00   0.000000000000000E+00
   0.000000000000000E+00   0.000000000000000E+00   0.000000000000000E+00
   0.000000000000000E+00   0.000000000000000E+00   0.000000000000000E+00
   0.000000000000000E+00   0.000000000000000E+00   0.000000000000000E+00
   0.000000000000000E+00   0.000000000000000E+00   0.000000000000000E+00
   0.000000000000000E+00   0.000000000000000E+00   0.000000000000000E+00
   0.000000000000000E+00   0.000000000000000E+00   0.000000000000000E+00
   0.000000000000000E+00   0.000000000000000E+00   0.000000000000000E+00
   0.000000000000000E+00   0.000000000000000E+00   0.000000000000000E+00
   0.000000000000000E+00   0.000000000000000E+00   0.000000000000000E+00
   0.000000000000000E+00   0.000000000000000E+00   0.000000000000000E+00
   0.000000000000000E+00   0.000000000000000E+00   0.000000000000000E+00
   0.000000000000000E+00   0.000000000000000E+00   0.000000000000000E+00
   0.000000000000000E+00   0.000000000000000E+00   0.000000000000000E+00
   0.000000000000000E+00   0.000000000000000E+00   0.000000000000000E+00
   0.000000000000000E+00   0.000000000000000E+00   0.000000000000000E+00
   0.000000000000000E+00   0.000000000000000E+00   0.000000000000000E+00
   0.000000000000000E+00   0.000000000000000E+00   0.000000000000000E+00
   0.000000000000000E+00   0.000000000000000E+00   0.000000000000000E+00
   0.000000000000000E+00   0.000000000000000E+00   0.000000000000000E+00
   0.000000000000000E+00   0.000000000000000E+00   0.000000000000000E+00
   0.000000000000000E+00   0.000000000000000E+00   0.000000000000000E+00
   0.000000000000000E+00   0.000000000000000E+00   0.000000000000000E+00
   0.000000000000000E+00   0.000000000000000E+00   0.000000000000000E+00
   0.000000000000000E+00   0.000000000000000E+00   0.000000000000000E+00
   0.000000000000000E+00   0.000000000000000E+00   0.000000000000000E+00
   0.000000000000000E+00   0.000000000000000E+00   0.000000000000000E+00
   0.000000000000000E+00   0.000000000000000E+00   0.000000000000000E+00
   0.000000000000000E+00   0.000000000000000E+00   0.000000000000000E+00
   0.000000000000000E+00   0.000000000000000E+00   0.000000000000000E+00
   0.000000000000000E+00   0.000000000000000E+00   0.000000000000000E+00
   0.000000000000000E+00   0.000000000000000E+00   0.000000000000000E+00
   0.000000000000000E+00   0.000000000000000E+00   0.000000000000000E+00
   0.000000000000000E+00   0.000000000000000E+00   0.000000000000000E+00
   0.000000000000000E+00   0.000000000000000E+00   0.000000000000000E+00
   0.000000000000000E+00   0.000000000000000E+00   0.000000000000000E+00
   0.000000000000000E+00   0.000000000000000E+00   0.000000000000000E+00
   0.000000000000000E+00   0.000000000000000E+00   0.000000000000000E+00
   0.000000000000000E+00   0.000000000000000E+00   0.000000000000000E+00
   0.000000000000000E+00   0.000000000000000E+00   0.000000000000000E+00
   0.000000000000000E+00   0.000000000000000E+00   0.000000000000000E+00
   0.000000000000000E+00   0.000000000000000E+00   0.000000000000000E+00
   0.000000000000000E+00   0.000000000000000E+00   0.000000000000000E+00
   0.000000000000000E+00   0.000000000000000E+00   0.000000000000000E+00
   0.000000000000000E+00   0.000000000000000E+00   0.000000000000000E+00
   0.000000000000000E+00   0.000000000000000E+00   0.000000000000000E+00
   0.000000000000000E+00   0.000000000000000E+00   0.000000000000000E+00
   0.000000000000000E+00   0.000000000000000E+00   0.000000000000000E+00
   0.000000000000000E+00   0.000000000000000E+00   0.000000000000000E+00
   0.000000000000000E+00   0.000000000000000E+00   0.000000000000000E+00
   0.000000000000000E+00   0.000000000000000E+00   0.000000000000000E+00
   0.000000000000000E+00   0.000000000000000E+00   0.000000000000000E+00
   0.000000000000000E+00   0.000000000000000E+00   0.000000000000000E+00
   0.000000000000000E+00   0.000000000000000E+00   0.000000000000000E+00
   0.000000000000000E+00   0.000000000000000E+00   0.000000000000000E+00
   0.000000000000000E+00   0.000000000000000E+00   0.000000000000000E+00
   0.000000000000000E+00   0.000000000000000E+00   0.000000000000000E+00
   0.000000000000000E+00   0.000000000000000E+00   0.000000000000000E+00
   0.000000000000000E+00
      </PP_QIJL.3.3.0>
      <PP_QIJL.3.3.2 first_index="3" second_index="3" composite_index="6" angular_momentum="2" size="1135">
  -2.492675445838792E-19  -2.620477651778905E-19  -2.754832417164450E-19
  -2.896075698919969E-19  -3.044560678851295E-19  -3.200658646784109E-19
  -3.364759928982145E-19  -3.537274864166356E-19  -3.718634829575638E-19
  -3.909293319634943E-19  -4.109727079927699E-19  -4.320437299308481E-19
  -4.541950863136377E-19  -4.774821670763231E-19  -5.019632020570940E-19
  -5.276994066020883E-19  -5.547551346357065E-19  -5.831980395789661E-19
  -6.130992435183527E-19  -6.445335150481286E-19  -6.775794562308155E-19
  -7.123196991433520E-19  -7.488411125003891E-19  -7.872350188713900E-19
  -8.275974230347078E-19  -8.700292520395944E-19  -9.146366075764968E-19
  -9.615310312866281E-19  -1.010829783674273E-18  -1.062656137319244E-18
  -1.117139685122628E-18  -1.174416664356689E-18  -1.234630297329137E-18
  -1.297931149513623E-18  -1.364477506042045E-18  -1.434435767499942E-18
  -1.507980866014846E-18  -1.585296702677888E-18  -1.666576607392541E-18
  -1.752023822300305E-18  -1.841852009992146E-18  -1.936285787776546E-18
  -2.035561289340038E-18  -2.139926755204733E-18  -2.249643153459253E-18
  -2.364984832315221E-18  -2.486240206121081E-18  -2.613712476548605E-18
  -2.747720390755457E-18  -2.888599038419576E-18  -3.036700689638401E-18
  -3.192395675788189E-18  -3.356073315545927E-18  -3.528142888389458E-18
  -3.709034658010060E-18  -3.899200948196521E-18  -4.099117273880996E-18
  -4.309283530174934E-18  -4.530225242368102E-18  -4.762494880016663E-18
  -5.006673238405776E-18  -5.263370890841597E-18  -5.533229715403784E-18
  -5.816924499976430E-18  -6.115164629570686E-18  -6.428695860158383E-18
  -6.758302183452085E-18  -7.104807787294579E-18  -7.469079116559714E-18
  -7.852027039718113E-18  -8.254609126484996E-18  -8.677832042245749E-18
  -9.122754065246423E-18  -9.590487732843350E-18  -1.008220262342935E-17
  -1.059912828099191E-17  -1.114255728961741E-17  -1.171384850562861E-17
  -1.231443045543702E-17  -1.294580490760800E-17  -1.360955062806882E-17
  -1.430732732785136E-17  -1.504087981323967E-17  -1.581204234870060E-17
  -1.662274324350697E-17  -1.747500967352230E-17  -1.837097275020374E-17
  -1.931287284949917E-17  -2.030306521396276E-17  -2.134402584209783E-17
  -2.243835767965294E-17  -2.358879712835286E-17  -2.479822088834076E-17
  -2.606965315143913E-17  -2.740627316321941E-17  -2.881142317278531E-17
  -3.028861679015424E-17  -3.184154777212867E-17  -3.347409925863121E-17
  -3.519035348259789E-17  -3.699460197770707E-17  -3.889135630947393E-17
  -4.088535935653854E-17  -4.298159717036019E-17  -4.518531144297338E-17
  -4.750201261397863E-17  -4.993749364954639E-17  -5.249784452788643E-17
  -5.518946746740551E-17  -5.801909293563066E-17  -6.099379647892910E-17
  -6.412101641511012E-17  -6.740857243314685E-17  -7.086468514652976E-17
  -7.449799664914502E-17  -7.831759212507556E-17  -8.233302256636849E-17
  -8.655432865556507E-17  -9.099206587272338E-17  -9.565733088970479E-17
  -1.005617893177327E-16  -1.057177048776004E-16  -1.111379700654756E-16
  -1.168361383909762E-16  -1.228264582681387E-16  -1.291239086440134E-16
  -1.357442364539877E-16  -1.427039959974929E-16  -1.500205903325516E-16
  -1.577123147926803E-16  -1.657984027349566E-16  -1.742990736336541E-16
  -1.832355836396993E-16  -1.926302787323779E-16  -2.025066505962035E-16
  -2.128893953626612E-16  -2.238044753637252E-16  -2.352791840515625E-16
  -2.473422142467508E-16  -2.600237298856875E-16  -2.733554414465688E-16
  -2.873706852425809E-16  -3.021045067805530E-16  -3.175937483935211E-16
  -3.338771413663461E-16  -3.509954027847299E-16  -3.689913373498268E-16
  -3.879099444130252E-16  -4.077985304985636E-16  -4.287068275953453E-16
  -4.506871175137269E-16  -4.737943626182764E-16  -4.980863432633953E-16
  -5.236238022754453E-16  -5.504705968427124E-16  -5.786938581929745E-16
  -6.083641594579925E-16  -6.395556921446616E-16  -6.723464516540976E-16
  -7.068184323126012E-16  -7.430578324021117E-16  -7.811552697029405E-16
  -8.212060080876849E-16  -8.633101957329829E-16  -9.075731155447630E-16
  -9.541054484231776E-16  -1.003023550025603E-15  -1.054449741719663E-15
  -1.108512616453954E-15  -1.165347360311227E-15  -1.225096090548133E-15
  -1.287908210966899E-15  -1.353940785507422E-15  -1.423358930994124E-15
  -1.496336230019647E-15  -1.573055164997695E-15  -1.653707574470716E-15
  -1.738495132813088E-15  -1.827629854529695E-15  -1.921334624410782E-15
  -2.019843754868708E-15  -2.123403571850558E-15  -2.232273030791462E-15
  -2.346724364149032E-15  -2.467043762138211E-15  -2.593532088368498E-15
  -2.726505632173597E-15  -2.866296899514184E-15  -3.013255444432047E-15
  -3.167748743134506E-15  -3.330163112894757E-15  -3.500904678066513E-15
  -3.680400385627743E-15  -3.869099072793934E-15  -4.067472589369925E-15
  -4.276016977647039E-15  -4.495253712796588E-15  -4.725731006860507E-15
  -4.968025179601050E-15  -5.222742099636680E-15  -5.490518699468505E-15
  -5.772024568185787E-15  -6.067963625832910E-15  -6.379075883625393E-15
  -6.706139294416551E-15  -7.049971698041688E-15  -7.411432866405760E-15
  -7.791426653426942E-15  -8.190903255214050E-15  -8.610861586128919E-15
  -9.052351776675544E-15  -9.516477799463382E-15  -1.000440022981018E-14
  -1.051733914788912E-14  -1.105657718967706E-14  -1.162346275433336E-14
  -1.221941337603089E-14  -1.284591926867021E-14  -1.350454705234212E-14
  -1.419694367085735E-14  -1.492484051013971E-14  -1.569005772778314E-14
  -1.649450880459771E-14  -1.734020532952895E-14  -1.822926202991631E-14
  -1.916390205966797E-14  -2.014646255858135E-14  -2.117940049670603E-14
  -2.226529881837040E-14  -2.340687290123373E-14  -2.460697734651680E-14
  -2.586861311739433E-14  -2.719493504339885E-14  -2.858925970960406E-14
  -3.005507375031951E-14  -3.159604256803315E-14  -3.321601949941320E-14
  -3.491905545128510E-14  -3.670940903068939E-14  -3.859155719434928E-14
  -4.057020644418226E-14  -4.265030459685839E-14  -4.483705315683621E-14
  -4.713592032381942E-14  -4.955265466717222E-14  -5.209329950148254E-14
  -5.476420799923665E-14  -5.757205907839078E-14  -6.052387410458465E-14
  -6.362703444976206E-14  -6.688929995111590E-14  -7.031882831652405E-14
  -7.392419552500858E-14  -7.771441727324315E-14  -8.169897152174431E-14
  -8.588782219714273E-14  -9.029144410980684E-14  -9.492084914914998E-14
  -9.978761382213487E-14  -1.049039082038499E-13  -1.102825263725732E-13
  -1.159369184054454E-13  -1.218812240147748E-13  -1.281303079091142E-13
  -1.346997969675492E-13  -1.416061193201770E-13  -1.488665454325399E-13
  -1.564992312967600E-13  -1.645232638374225E-13  -1.729587086457731E-13
  -1.818266601616337E-13  -1.911492944285650E-13  -2.009499245542161E-13
  -2.112530590146174E-13  -2.220844629482452E-13  -2.334712225931739E-13
  -2.454418130285291E-13  -2.580261693896662E-13  -2.712557617352479E-13
  -2.851636737534853E-13  -2.997846855044377E-13  -3.151553604053678E-13
  -3.313141366767365E-13  -3.483014234776299E-13  -3.661597019710962E-13
  -3.849336315722429E-13  -4.046701616448906E-13  -4.254186489262316E-13
  -4.472309809732554E-13  -4.701617059398049E-13  -4.942681690089144E-13
  -5.196106558218175E-13  -5.462525432624135E-13  -5.742604579745246E-13
  -6.037044430084943E-13  -6.346581330141048E-13  -6.671989384181931E-13
  -7.014082390477443E-13  -7.373715876829828E-13  -7.751789240497917E-13
  -8.149247997868946E-13  -8.567086149507684E-13  -9.006348666500709E-13
  -9.468134104318134E-13  -9.953597350733099E-13  -1.046395251467616E-12
  -1.100047596325421E-12  -1.156450951453352E-12  -1.215746379407806E-12
  -1.278082176364333E-12  -1.343614243085655E-12  -1.412506474916894E-12
  -1.484931171783946E-12  -1.561069469221402E-12  -1.641111791508649E-12
  -1.725258328048570E-12  -1.813719534181133E-12  -1.906716657685520E-12
  -2.004482292288801E-12  -2.107260959566749E-12  -2.215309720693387E-12
  -2.328898819571008E-12  -2.448312358950431E-12  -2.573849011234539E-12
  -2.705822765744495E-12  -2.844563714319809E-12  -2.990418877218916E-12
  -3.143753071388802E-12  -3.304949823277301E-12  -3.474412328474167E-12
  -3.652564460583902E-12  -3.839851831856856E-12  -4.036742908234835E-12
  -4.243730181603847E-12  -4.461331402189892E-12  -4.690090874184665E-12
  -4.930580817846220E-12  -5.183402801486865E-12  -5.449189246934856E-12
  -5.728605012241948E-12  -6.022349055601272E-12  -6.331156184644265E-12
  -6.655798895499919E-12  -6.997089306223718E-12  -7.355881189441377E-12
  -7.733072109300471E-12  -8.129605668085166E-12  -8.546473868125011E-12
  -8.984719594916195E-12  -9.445439227680178E-12  -9.929785383902365E-12
  -1.043896980473070E-11  -1.097426638846827E-11  -1.153701437976388E-11
  -1.212862172249704E-11  -1.275056858476464E-11  -1.340441106480741E-11
  -1.409178508717030E-11  -1.481441049886782E-11  -1.557409537582740E-11
  -1.637274055041311E-11  -1.721234437138636E-11  -1.809500770824481E-11
  -1.902293921249542E-11  -1.999846084906092E-11  -2.102401371170229E-11
  -2.210216413704774E-11  -2.323561013257635E-11  -2.442718813468774E-11
  -2.567988011382333E-11  -2.699682104447660E-11  -2.838130675884580E-11
  -2.983680220385098E-11  -3.136695012224983E-11  -3.297558017965575E-11
  -3.466671856038160E-11  -3.644459798628802E-11  -3.831366855647308E-11
  -4.027860886630511E-11  -4.234433671711632E-11  -4.451602382032562E-11
  -4.679910563693882E-11  -4.919929786666623E-11  -5.172260955993495E-11
  -5.437535692721038E-11  -5.716418150494159E-11  -6.009606524886274E-11
  -6.317834901481618E-11  -6.641875001351590E-11  -6.982538152546545E-11
  -7.340677348092821E-11  -7.717189402021890E-11  -8.113017109900244E-11
  -8.529151727720791E-11  -8.966635380379101E-11  -9.426563653366236E-11
  -9.910088495275580E-11  -1.041842087773727E-10  -1.095283402795739E-10
  -1.151466653570078E-10  -1.210532574917436E-10  -1.272629129907804E-10
  -1.337911859999791E-10  -1.406544346614679E-10  -1.478698500885825E-10
  -1.554555138143005E-10  -1.634304305843758E-10  -1.718145832187769E-10
  -1.806289819605908E-10  -1.898957158508820E-10  -1.996380079839023E-10
  -2.098802765275127E-10  -2.206481904667334E-10  -2.319687425039443E-10
  -2.438703090339749E-10  -2.563827276490779E-10  -2.695373649089237E-10
  -2.833672040611608E-10  -2.979069211652400E-10  -3.131929754524454E-10
  -3.292637001935575E-10  -3.461593979984481E-10  -3.639224464757164E-10
  -3.825974002908833E-10  -4.022311042946056E-10  -4.228728135770910E-10
  -4.445743172598249E-10  -4.673900650558890E-10  -4.913773078406845E-10
  -5.165962449924468E-10  -5.431101683635426E-10  -5.709856289477354E-10
  -6.002925990975110E-10  -6.311046561941330E-10  -6.634991582900266E-10
  -6.975574477798169E-10  -7.333650567056608E-10  -7.710119134189511E-10
  -8.105925815200355E-10  -8.522064862361237E-10  -8.959581856654266E-10
  -9.419576064733748E-10  -9.903203474347198E-10  -1.041167956461635E-09
  -1.094628248216460E-09  -1.150835613054047E-09  -1.209931377205722E-09
  -1.272064147012211E-09  -1.337390178127010E-09  -1.406073792352406E-09
  -1.478287774951584E-09  -1.554213829183823E-09  -1.634043018130350E-09
  -1.717976266509311E-09  -1.806224862356319E-09  -1.899010980428168E-09
  -1.996568279959769E-09  -2.099142469587287E-09  -2.206991933489840E-09
  -2.320388402587345E-09  -2.439617648095994E-09  -2.564980165710770E-09
  -2.696792007769740E-09  -2.835385532959270E-09  -2.981110270588186E-09
  -3.134333833906468E-09  -3.295442815413296E-09  -3.464843811488902E-09
  -3.642964419539892E-09  -3.830254390260974E-09  -4.027186704057161E-09
  -4.234258833942857E-09  -4.451993993700984E-09  -4.680942485370881E-09
  -4.921683106697121E-09  -5.174824627704875E-09  -5.441007363382340E-09
  -5.720904794287959E-09  -6.015225322838343E-09  -6.324714070447922E-09
  -6.650154803630529E-09  -6.992371943742931E-09  -7.352232694961013E-09
  -7.730649259981142E-09  -8.128581216740619E-09  -8.547037972693374E-09
  -8.987081380438577E-09  -9.449828459036357E-09  -9.936454312954424E-09
  -1.044819514977605E-08  -1.098635147838918E-08  -1.155229150013899E-08
  -1.214745461877017E-08  -1.277335521788110E-08  -1.343158656076808E-08
  -1.412382495367733E-08  -1.485183408711820E-08  -1.561746966393950E-08
  -1.642268418490196E-08  -1.726953209727041E-08  -1.816017512815602E-08
  -1.909688795309441E-08  -2.008206414045082E-08  -2.111822241724994E-08
  -2.220801330564575E-08  -2.335422604276914E-08  -2.455979596274337E-08
  -2.582781217256477E-08  -2.716152573622813E-08  -2.856435822601922E-08
  -3.003991077024191E-08  -3.159197357652667E-08  -3.322453599425420E-08
  -3.494179705871431E-08  -3.674817666596402E-08  -3.864832732166480E-08
  -4.064714652885074E-08  -4.274978986348612E-08  -4.496168472705922E-08
  -4.728854488025369E-08  -4.973638573913740E-08  -5.231154051113801E-08
  -5.502067724166040E-08  -5.787081673775058E-08  -6.086935149664487E-08
  -6.402406570284866E-08  -6.734315624057682E-08  -7.083525494704886E-08
  -7.450945202965576E-08  -7.837532078586108E-08  -8.244294371319737E-08
  -8.672293998962654E-08  -9.122649456279764E-08  -9.596538878869030E-08
  -1.009520327571239E-07  -1.061994994787105E-07  -1.117215608882750E-07
  -1.175327259270589E-07  -1.236482806809874E-07  -1.300843308311074E-07
  -1.368578463976861E-07  -1.439867090683641E-07  -1.514897621213007E-07
  -1.593868631969407E-07  -1.676989400178887E-07  -1.764480492411159E-07
  -1.856574386806210E-07  -1.953516129787143E-07  -2.055564030795134E-07
  -2.162990395947488E-07  -2.276082303354881E-07  -2.395142423351396E-07
  -2.520489884471321E-07  -2.652461189950338E-07  -2.791411186111399E-07
  -2.937714086637950E-07  -3.091764555642925E-07  -3.253978853299906E-07
  -3.424796047389145E-07  -3.604679294969818E-07  -3.794117198586068E-07
  -3.993625240943145E-07  -4.203747303183559E-07  -4.425057271501570E-07
  -4.658160737907883E-07  -4.903696800221560E-07  -5.162339967723326E-07
  -5.434802178854888E-07  -5.721834937500108E-07  -6.024231575263789E-07
  -6.342829648112226E-07  -6.678513473618091E-07  -7.032216819988476E-07
  -7.404925754457564E-07  -7.797681661409197E-07  -8.211584440342196E-07
  -8.647795895962055E-07  -9.107543330067738E-07  -9.592123350778512E-07
  -1.010290590925005E-06  -1.064133858086442E-06  -1.120895110452885E-06
  -1.180736019686574E-06  -1.243827465781078E-06  -1.310350078692179E-06
  -1.380494812885746E-06  -1.454463556952875E-06  -1.532469780446029E-06
  -1.614739220254086E-06  -1.701510609186500E-06  -1.793036449148371E-06
  -1.889583831988907E-06  -1.991435310937223E-06  -2.098889825800251E-06
  -2.212263685424348E-06  -2.331891611007926E-06  -2.458127844133293E-06
  -2.591347323722630E-06  -2.731946936214933E-06  -2.880346843722830E-06
  -3.036991895085869E-06  -3.202353125220992E-06  -3.376929348338529E-06
  -3.561248851074382E-06  -3.755871191974508E-06  -3.961389114120755E-06
  -4.178430578172590E-06  -4.407660923597552E-06  -4.649785166273499E-06
  -4.905550441290151E-06  -5.175748600252951E-06  -5.461218973050762E-06
  -5.762851304631511E-06  -6.081588878118755E-06  -6.418431836175836E-06
  -6.774440713433443E-06  -7.150740193491126E-06  -7.548523105019407E-06
  -7.969054672241633E-06  -8.413677036139027E-06  -8.883814063850566E-06
  -9.380976464587920E-06  -9.906767231871293E-06  -1.046288743280960E-05
  -1.105114236680290E-05  -1.167344811702451E-05  -1.233183851998489E-05
  -1.302847257954478E-05  -1.376564235384913E-05  -1.454578134503676E-05
  -1.537147342365502E-05  -1.624546232151914E-05  -1.717066172890163E-05
  -1.815016603404740E-05  -1.918726174531938E-05  -2.028543963867747E-05
  -2.144840767580079E-05  -2.268010474066039E-05  -2.398471524544935E-05
  -2.536668465934722E-05  -2.683073601713678E-05  -2.838188746753320E-05
  -3.002547092477537E-05  -3.176715189046258E-05  -3.361295051642637E-05
  -3.556926398320446E-05  -3.764289027296914E-05  -3.984105341967210E-05
  -4.217143032397299E-05  -4.464217922469120E-05  -4.726196992355629E-05
  -5.004001586483793E-05  -5.298610817644204E-05  -5.611065178440287E-05
  -5.942470371797379E-05  -6.294001372808038E-05  -6.666906734749587E-05
  -7.062513152686695E-05  -7.482230298647052E-05  -7.927555942954359E-05
  -8.400081376891733E-05  -8.901497152462122E-05  -9.433599155593916E-05
  -9.998295029741539E-05  -1.059761096737803E-04  -1.123369888744279E-04
  -1.190884401733685E-04  -1.262547289854347E-04  -1.338616183542415E-04
  -1.419364580713826E-04  -1.505082786299184E-04  -1.596078902180558E-04
  -1.692679869608088E-04  -1.795232566185777E-04  -1.904104959514342E-04
  -2.019687319565281E-04  -2.142393491831550E-04  -2.272662233255344E-04
  -2.410958612867936E-04  -2.557775478990662E-04  -2.713634994734137E-04
  -2.879090243396354E-04  -3.054726905187826E-04  -3.241165006511388E-04
  -3.439060742779396E-04  -3.649108375468603E-04  -3.872042203780160E-04
  -4.108638610888702E-04  -4.359718184324502E-04  -4.626147909528162E-04
  -4.908843435045403E-04  -5.208771407181777E-04  -5.526951871207362E-04
  -5.864460735381877E-04  -6.222432293155857E-04  -6.602061797880515E-04
  -7.004608083227340E-04  -7.431396221258811E-04  -7.883820208706908E-04
  -8.363345670485860E-04  -8.871512567787555E-04  -9.409937896271957E-04
  -9.980318357852155E-04  -1.058443298739232E-03  -1.122414571325360E-03
  -1.190140782805167E-03  -1.261826034320555E-03  -1.337683619785446E-03
  -1.417936228950120E-03  -1.502816129028232E-03  -1.592565320907829E-03
  -1.687435665575124E-03  -1.787688975962444E-03  -1.893597068991884E-03
  -2.005441772121312E-03  -2.123514878213032E-03  -2.248118042037024E-03
  -2.379562611191911E-03  -2.518169383681667E-03  -2.664268283824255E-03
  -2.818197947596666E-03  -2.980305207941418E-03  -3.150944469977447E-03
  -3.330476965482245E-03  -3.519269875445275E-03  -3.717695308947667E-03
  -3.926129126107346E-03  -4.144949592352922E-03  -4.374535850870275E-03
  -4.615266199711867E-03  -4.867516159792225E-03  -5.131656319829253E-03
  -5.408049944249350E-03  -5.697050330182410E-03  -5.998997899948502E-03
  -6.314217015915075E-03  -6.643012505308353E-03  -6.985665883525255E-03
  -7.342431265753910E-03  -7.713530958298414E-03  -8.099150722965090E-03
  -8.499434710237827E-03  -8.914480059790992E-03  -9.344331170209410E-03
  -9.788973643639735E-03  -1.024832791554016E-02  -1.072224258476226E-02
  -1.121048746493064E-02  -1.171274638452765E-02  -1.222860977026486E-02
  -1.275756705626775E-02  -1.329899897032938E-02  -1.385216975801007E-02
  -1.441621941568127E-02  -1.499015601469892E-02  -1.557284821072599E-02
  -1.616301804473736E-02  -1.675923415535241E-02  -1.735990553575215E-02
  -1.796327598238784E-02  -1.856741939681790E-02  -1.917023611608552E-02
  -1.976945046080893E-02  -2.036260970329467E-02  -2.094708467011641E-02
  -2.152007220432153E-02  -2.207859972123690E-02  -2.261953209819961E-02
  -2.313958114183436E-02  -2.363531787604670E-02  -2.410318788898405E-02
  -2.453952996702088E-02  -2.494059822752387E-02  -2.530258793885202E-02
  -2.562166518483495E-02  -2.589400049093432E-02  -2.611580647950878E-02
  -2.628337956121258E-02  -2.639314559775858E-02  -2.644170938738674E-02
  -2.642590772787722E-02  -2.634286570251489E-02  -2.619005571201481E-02
  -2.596535864034937E-02  -2.566712639539113E-02  -2.529424490749869E-02
  -2.484619650240377E-02  -2.432312039143580E-02  -2.372586984542455E-02
  -2.305606444255856E-02  -2.231613560994306E-02  -2.150936351947959E-02
  -2.063990325784494E-02  -1.971279807569941E-02  -1.873397744173641E-02
  -1.771023759267958E-02  -1.664920229162732E-02  -1.555926159568300E-02
  -1.444948660154104E-02  -1.332951839672308E-02  -1.220942980629710E-02
  -1.109955900128755E-02  -1.001031463528852E-02  -8.951952907686687E-03
  -7.934327820107355E-03  -6.966616898073100E-03  -6.057025788449025E-03
  -5.212476405053425E-03  -4.438284662818757E-03  -3.737835289845238E-03
  -3.112262702076467E-03  -2.560148422480151E-03  -2.077246969949730E-03
  -1.656253465853851E-03  -1.288788449786943E-03  -9.726722993863290E-04
  -7.069541917462119E-04  -4.899169743935727E-04  -3.190164973171650E-04
  -1.908195730268569E-04  -1.009407918686200E-04  -4.397864234501059E-05
  -1.345159671373164E-05  -1.735024959037545E-06   1.110223024625157E-16
   0.000000000000000E+00   0.000000000000000E+00   0.000000000000000E+00
   0.000000000000000E+00   0.000000000000000E+00   0.000000000000000E+00
   0.000000000000000E+00   0.000000000000000E+00   0.000000000000000E+00
   0.000000000000000E+00   0.000000000000000E+00   0.000000000000000E+00
   0.000000000000000E+00   0.000000000000000E+00   0.000000000000000E+00
   0.000000000000000E+00   0.000000000000000E+00   0.000000000000000E+00
   0.000000000000000E+00   0.000000000000000E+00   0.000000000000000E+00
   0.000000000000000E+00   0.000000000000000E+00   0.000000000000000E+00
   0.000000000000000E+00   0.000000000000000E+00   0.000000000000000E+00
   0.000000000000000E+00   0.000000000000000E+00   0.000000000000000E+00
   0.000000000000000E+00   0.000000000000000E+00   0.000000000000000E+00
   0.000000000000000E+00   0.000000000000000E+00   0.000000000000000E+00
   0.000000000000000E+00   0.000000000000000E+00   0.000000000000000E+00
   0.000000000000000E+00   0.000000000000000E+00   0.000000000000000E+00
   0.000000000000000E+00   0.000000000000000E+00   0.000000000000000E+00
   0.000000000000000E+00   0.000000000000000E+00   0.000000000000000E+00
   0.000000000000000E+00   0.000000000000000E+00   0.000000000000000E+00
   0.000000000000000E+00   0.000000000000000E+00   0.000000000000000E+00
   0.000000000000000E+00   0.000000000000000E+00   0.000000000000000E+00
   0.000000000000000E+00   0.000000000000000E+00   0.000000000000000E+00
   0.000000000000000E+00   0.000000000000000E+00   0.000000000000000E+00
   0.000000000000000E+00   0.000000000000000E+00   0.000000000000000E+00
   0.000000000000000E+00   0.000000000000000E+00   0.000000000000000E+00
   0.000000000000000E+00   0.000000000000000E+00   0.000000000000000E+00
   0.000000000000000E+00   0.000000000000000E+00   0.000000000000000E+00
   0.000000000000000E+00   0.000000000000000E+00   0.000000000000000E+00
   0.000000000000000E+00   0.000000000000000E+00   0.000000000000000E+00
   0.000000000000000E+00   0.000000000000000E+00   0.000000000000000E+00
   0.000000000000000E+00   0.000000000000000E+00   0.000000000000000E+00
   0.000000000000000E+00   0.000000000000000E+00   0.000000000000000E+00
   0.000000000000000E+00   0.000000000000000E+00   0.000000000000000E+00
   0.000000000000000E+00   0.000000000000000E+00   0.000000000000000E+00
   0.000000000000000E+00   0.000000000000000E+00   0.000000000000000E+00
   0.000000000000000E+00   0.000000000000000E+00   0.000000000000000E+00
   0.000000000000000E+00   0.000000000000000E+00   0.000000000000000E+00
   0.000000000000000E+00   0.000000000000000E+00   0.000000000000000E+00
   0.000000000000000E+00   0.000000000000000E+00   0.000000000000000E+00
   0.000000000000000E+00   0.000000000000000E+00   0.000000000000000E+00
   0.000000000000000E+00   0.000000000000000E+00   0.000000000000000E+00
   0.000000000000000E+00   0.000000000000000E+00   0.000000000000000E+00
   0.000000000000000E+00   0.000000000000000E+00   0.000000000000000E+00
   0.000000000000000E+00   0.000000000000000E+00   0.000000000000000E+00
   0.000000000000000E+00   0.000000000000000E+00   0.000000000000000E+00
   0.000000000000000E+00   0.000000000000000E+00   0.000000000000000E+00
   0.000000000000000E+00   0.000000000000000E+00   0.000000000000000E+00
   0.000000000000000E+00   0.000000000000000E+00   0.000000000000000E+00
   0.000000000000000E+00   0.000000000000000E+00   0.000000000000000E+00
   0.000000000000000E+00   0.000000000000000E+00   0.000000000000000E+00
   0.000000000000000E+00   0.000000000000000E+00   0.000000000000000E+00
   0.000000000000000E+00   0.000000000000000E+00   0.000000000000000E+00
   0.000000000000000E+00   0.000000000000000E+00   0.000000000000000E+00
   0.000000000000000E+00   0.000000000000000E+00   0.000000000000000E+00
   0.000000000000000E+00   0.000000000000000E+00   0.000000000000000E+00
   0.000000000000000E+00   0.000000000000000E+00   0.000000000000000E+00
   0.000000000000000E+00   0.000000000000000E+00   0.000000000000000E+00
   0.000000000000000E+00   0.000000000000000E+00   0.000000000000000E+00
   0.000000000000000E+00   0.000000000000000E+00   0.000000000000000E+00
   0.000000000000000E+00   0.000000000000000E+00   0.000000000000000E+00
   0.000000000000000E+00   0.000000000000000E+00   0.000000000000000E+00
   0.000000000000000E+00   0.000000000000000E+00   0.000000000000000E+00
   0.000000000000000E+00   0.000000000000000E+00   0.000000000000000E+00
   0.000000000000000E+00   0.000000000000000E+00   0.000000000000000E+00
   0.000000000000000E+00   0.000000000000000E+00   0.000000000000000E+00
   0.000000000000000E+00   0.000000000000000E+00   0.000000000000000E+00
   0.000000000000000E+00   0.000000000000000E+00   0.000000000000000E+00
   0.000000000000000E+00   0.000000000000000E+00   0.000000000000000E+00
   0.000000000000000E+00   0.000000000000000E+00   0.000000000000000E+00
   0.000000000000000E+00   0.000000000000000E+00   0.000000000000000E+00
   0.000000000000000E+00   0.000000000000000E+00   0.000000000000000E+00
   0.000000000000000E+00   0.000000000000000E+00   0.000000000000000E+00
   0.000000000000000E+00   0.000000000000000E+00   0.000000000000000E+00
   0.000000000000000E+00   0.000000000000000E+00   0.000000000000000E+00
   0.000000000000000E+00   0.000000000000000E+00   0.000000000000000E+00
   0.000000000000000E+00   0.000000000000000E+00   0.000000000000000E+00
   0.000000000000000E+00   0.000000000000000E+00   0.000000000000000E+00
   0.000000000000000E+00   0.000000000000000E+00   0.000000000000000E+00
   0.000000000000000E+00   0.000000000000000E+00   0.000000000000000E+00
   0.000000000000000E+00   0.000000000000000E+00   0.000000000000000E+00
   0.000000000000000E+00   0.000000000000000E+00   0.000000000000000E+00
   0.000000000000000E+00   0.000000000000000E+00   0.000000000000000E+00
   0.000000000000000E+00   0.000000000000000E+00   0.000000000000000E+00
   0.000000000000000E+00   0.000000000000000E+00   0.000000000000000E+00
   0.000000000000000E+00   0.000000000000000E+00   0.000000000000000E+00
   0.000000000000000E+00   0.000000000000000E+00   0.000000000000000E+00
   0.000000000000000E+00   0.000000000000000E+00   0.000000000000000E+00
   0.000000000000000E+00   0.000000000000000E+00   0.000000000000000E+00
   0.000000000000000E+00   0.000000000000000E+00   0.000000000000000E+00
   0.000000000000000E+00   0.000000000000000E+00   0.000000000000000E+00
   0.000000000000000E+00   0.000000000000000E+00   0.000000000000000E+00
   0.000000000000000E+00   0.000000000000000E+00   0.000000000000000E+00
   0.000000000000000E+00   0.000000000000000E+00   0.000000000000000E+00
   0.000000000000000E+00   0.000000000000000E+00   0.000000000000000E+00
   0.000000000000000E+00   0.000000000000000E+00   0.000000000000000E+00
   0.000000000000000E+00   0.000000000000000E+00   0.000000000000000E+00
   0.000000000000000E+00   0.000000000000000E+00   0.000000000000000E+00
   0.000000000000000E+00   0.000000000000000E+00   0.000000000000000E+00
   0.000000000000000E+00   0.000000000000000E+00   0.000000000000000E+00
   0.000000000000000E+00   0.000000000000000E+00   0.000000000000000E+00
   0.000000000000000E+00   0.000000000000000E+00   0.000000000000000E+00
   0.000000000000000E+00   0.000000000000000E+00   0.000000000000000E+00
   0.000000000000000E+00   0.000000000000000E+00   0.000000000000000E+00
   0.000000000000000E+00   0.000000000000000E+00   0.000000000000000E+00
   0.000000000000000E+00   0.000000000000000E+00   0.000000000000000E+00
   0.000000000000000E+00
      </PP_QIJL.3.3.2>
      <PP_QIJL.3.4.0 first_index="3" second_index="4" composite_index="9" angular_momentum="0" size="1135">
  -6.402582757962128E-10  -6.564664910584990E-10  -6.730850192356245E-10
  -6.901242474480690E-10  -7.075948257675017E-10  -7.255076738734145E-10
  -7.438739878782789E-10  -7.627052473254791E-10  -7.820132223643959E-10
  -8.018099811071381E-10  -8.221078971714945E-10  -8.429196574148499E-10
  -8.642582698638826E-10  -8.861370718449988E-10  -9.085697383206013E-10
  -9.315702904363710E-10  -9.551531042849466E-10  -9.793329198914445E-10
  -1.004124850426447E-09  -1.029544391652234E-09  -1.055607431608122E-09
  -1.082330260541012E-09  -1.109729581087313E-09  -1.137822518712635E-09
  -1.166626632415763E-09  -1.196159925703581E-09  -1.226440857843865E-09
  -1.257488355402910E-09  -1.289321824075245E-09  -1.321961160812829E-09
  -1.355426766261273E-09  -1.389739557510915E-09  -1.424920981170665E-09
  -1.460993026772835E-09  -1.497978240517307E-09  -1.535899739363627E-09
  -1.574781225479853E-09  -1.614647001057177E-09  -1.655521983499572E-09
  -1.697431720997981E-09  -1.740402408498744E-09  -1.784460904076298E-09
  -1.829634745720323E-09  -1.875952168547883E-09  -1.923442122451284E-09
  -1.972134290192671E-09  -2.022059105956723E-09  -2.073247774372990E-09
  -2.125732290019789E-09  -2.179545457421849E-09  -2.234720911554183E-09
  -2.291293138865026E-09  -2.349297498830978E-09  -2.408770246057803E-09
  -2.469748552940732E-09  -2.532270532898383E-09  -2.596375264194879E-09
  -2.662102814365010E-09  -2.729494265257722E-09  -2.798591738713602E-09
  -2.869438422892349E-09  -2.942078599266770E-09  -3.016557670300109E-09
  -3.092922187824033E-09  -3.171219882135031E-09  -3.251499691827339E-09
  -3.333811794381143E-09  -3.418207637525097E-09  -3.504739971392781E-09
  -3.593462881493241E-09  -3.684431822516114E-09  -3.777703652992595E-09
  -3.873336670833818E-09  -3.971390649768889E-09  -4.071926876705402E-09
  -4.175008190035645E-09  -4.280699018912615E-09  -4.389065423520271E-09
  -4.500175136363239E-09  -4.614097604601782E-09  -4.730904033458435E-09
  -4.850667430723541E-09  -4.973462652387416E-09  -5.099366449427685E-09
  -5.228457515781103E-09  -5.360816537529681E-09  -5.496526243332060E-09
  -5.635671456131512E-09  -5.778339146172922E-09  -5.924618485361961E-09
  -6.074600903000259E-09  -6.228380142931613E-09  -6.386052322134810E-09
  -6.547715990799726E-09  -6.713472193924307E-09  -6.883424534470769E-09
  -7.057679238120731E-09  -7.236345219669537E-09  -7.419534151101369E-09
  -7.607360531387756E-09  -7.799941758052895E-09  -7.997398200550780E-09
  -8.199853275499807E-09  -8.407433523821959E-09  -8.620268689834824E-09
  -8.838491802345706E-09  -9.062239257798751E-09  -9.291650905526896E-09
  -9.526870135161974E-09  -9.768043966257644E-09  -1.001532314018104E-08
  -1.026886221433074E-08  -1.052881965873983E-08  -1.079535795512449E-08
  -1.106864369843999E-08  -1.134884770100752E-08  -1.163614509927709E-08
  -1.193071546329306E-08  -1.223274290893081E-08  -1.254241621297470E-08
  -1.285992893110916E-08  -1.318547951889678E-08  -1.351927145581896E-08
  -1.386151337245660E-08  -1.421241918089046E-08  -1.457220820840240E-08
  -1.494110533456151E-08  -1.531934113178038E-08  -1.570715200942962E-08
  -1.610478036160072E-08  -1.651247471860928E-08  -1.693048990233373E-08
  -1.735908718548641E-08  -1.779853445491650E-08  -1.824910637904715E-08
  -1.871108457955091E-08  -1.918475780737147E-08  -1.967042212320120E-08
  -2.016838108252742E-08  -2.067894592536331E-08  -2.120243577078150E-08
  -2.173917781637255E-08  -2.228950754275257E-08  -2.285376892324788E-08
  -2.343231463888806E-08  -2.402550629884103E-08  -2.463371466642892E-08
  -2.525731989086521E-08  -2.589671174485827E-08  -2.655228986823005E-08
  -2.722446401770144E-08  -2.791365432300139E-08  -2.862029154945911E-08
  -2.934481736724377E-08  -3.008768462742018E-08  -3.084935764499223E-08
  -3.163031248911211E-08  -3.243103728063570E-08  -3.325203249721063E-08
  -3.409381128608777E-08  -3.495689978485089E-08  -3.584183745026620E-08
  -3.674917739545613E-08  -3.767948673560863E-08  -3.863334694243853E-08
  -3.961135420762073E-08  -4.061411981542533E-08  -4.164227052478416E-08
  -4.269644896103029E-08  -4.377731401755424E-08  -4.488554126762680E-08
  -4.602182338664908E-08  -4.718687058508942E-08  -4.838141105238129E-08
  -4.960619141205833E-08  -5.086197718840941E-08  -5.214955328494938E-08
  -5.346972447499944E-08  -5.482331590468804E-08  -5.621117360868482E-08
  -5.763416503898864E-08  -5.909317960710404E-08  -6.058912923994017E-08
  -6.212294894978354E-08  -6.369559741869914E-08  -6.530805759772371E-08
  -6.696133732123029E-08  -6.865646993684172E-08  -7.039451495129201E-08
  -7.217655869263730E-08  -7.400371498922803E-08  -7.587712586587252E-08
  -7.779796225761937E-08  -7.976742474161166E-08  -8.178674428746656E-08
  -8.385718302664888E-08  -8.598003504132355E-08  -8.815662717317391E-08
  -9.038831985269692E-08  -9.267650794949081E-08  -9.502262164406492E-08
  -9.742812732172246E-08  -9.989452848906684E-08  -1.024233667137112E-07
  -1.050162225877753E-07  -1.076747167157702E-07  -1.104005107274939E-07
  -1.131953083165633E-07  -1.160608563052382E-07  -1.189989457361993E-07
  -1.220114129919613E-07  -1.251001409426266E-07  -1.282670601226884E-07
  -1.315141499376255E-07  -1.348434399010415E-07  -1.382570109031157E-07
  -1.417569965111691E-07  -1.453455843031477E-07  -1.490250172348623E-07
  -1.527975950418393E-07  -1.566656756766533E-07  -1.606316767826487E-07
  -1.646980772049609E-07  -1.688674185397887E-07  -1.731423067228857E-07
  -1.775254136582552E-07  -1.820194788880810E-07  -1.866273113049214E-07
  -1.913517909072480E-07  -1.961958705994231E-07  -2.011625780372343E-07
  -2.062550175201538E-07  -2.114763719314862E-07  -2.168299047276327E-07
  -2.223189619777101E-07  -2.279469744547892E-07  -2.337174597800800E-07
  -2.396340246213802E-07  -2.457003669471786E-07  -2.519202783378141E-07
  -2.582976463551296E-07  -2.648364569721173E-07  -2.715407970640531E-07
  -2.784148569626929E-07  -2.854629330751190E-07  -2.926894305688727E-07
  -3.000988661250553E-07  -3.076958707611117E-07  -3.154851927250648E-07
  -3.234717004630083E-07  -3.316603856617079E-07  -3.400563663682183E-07
  -3.486648901884581E-07  -3.574913375667467E-07  -3.665412251483495E-07
  -3.758202092271298E-07  -3.853340892804677E-07  -3.950888115936451E-07
  -4.050904729759704E-07  -4.153453245709597E-07  -4.258597757629504E-07
  -4.366403981825995E-07  -4.476939298137539E-07  -4.590272792042719E-07
  -4.706475297834170E-07  -4.825619442885216E-07  -4.947779693036945E-07
  -5.073032399133915E-07  -5.201455844737727E-07  -5.333130295048155E-07
  -5.468138047062388E-07  -5.606563481003834E-07  -5.748493113052405E-07
  -5.894015649409419E-07  -6.043222041730778E-07  -6.196205543963004E-07
  -6.353061770617766E-07  -6.513888756521138E-07  -6.678787018075001E-07
  -6.847859616068853E-07  -7.021212220081109E-07  -7.198953174510344E-07
  -7.381193566277460E-07  -7.568047294241243E-07  -7.759631140370569E-07
  -7.956064842717659E-07  -8.157471170238099E-07  -8.363975999504092E-07
  -8.575708393359121E-07  -8.792800681562936E-07  -9.015388543477197E-07
  -9.243611092843603E-07  -9.477610964707149E-07  -9.717534404538985E-07
  -9.963531359614472E-07  -1.021575557270332E-06  -1.047436467813054E-06
  -1.073952030026793E-06  -1.101138815451775E-06  -1.129013815085152E-06
  -1.157594449996848E-06  -1.186898582214024E-06  -1.216944525880915E-06
  -1.247751058701043E-06  -1.279337433668916E-06  -1.311723391098543E-06
  -1.344929170956284E-06  -1.378975525505698E-06  -1.413883732272319E-06
  -1.449675607336407E-06  -1.486373518961996E-06  -1.524000401570732E-06
  -1.562579770069206E-06  -1.602135734538740E-06  -1.642693015296773E-06
  -1.684276958339235E-06  -1.726913551173569E-06  -1.770629439052224E-06
  -1.815451941616805E-06  -1.861409069963198E-06  -1.908529544138350E-06
  -1.956842811079600E-06  -2.006379063007729E-06  -2.057169256285228E-06
  -2.109245130751504E-06  -2.162639229547119E-06  -2.217384919439339E-06
  -2.273516411661762E-06  -2.331068783280932E-06  -2.390077999103287E-06
  -2.450580934136092E-06  -2.512615396616313E-06  -2.576220151621843E-06
  -2.641434945279727E-06  -2.708300529586488E-06  -2.776858687856039E-06
  -2.847152260810952E-06  -2.919225173333419E-06  -2.993122461892506E-06
  -3.068890302664786E-06  -3.146576040365886E-06  -3.226228217810802E-06
  -3.307896606221519E-06  -3.391632236300671E-06  -3.477487430090642E-06
  -3.565515833637932E-06  -3.655772450483030E-06  -3.748313675996748E-06
  -3.843197332584264E-06  -3.940482705778823E-06  -4.040230581247539E-06
  -4.142503282732227E-06  -4.247364710948969E-06  -4.354880383470516E-06
  -4.465117475616296E-06  -4.578144862375507E-06  -4.694033161389239E-06
  -4.812854777018425E-06  -4.934683945524911E-06  -5.059596781393744E-06
  -5.187671324825454E-06  -5.318987590427685E-06  -5.453627617136587E-06
  -5.591675519398798E-06  -5.733217539645814E-06  -5.878342102093350E-06
  -6.027139867898894E-06  -6.179703791711899E-06  -6.336129179651422E-06
  -6.496513748747315E-06  -6.660957687881762E-06  -6.829563720268780E-06
  -7.002437167510617E-06  -7.179686015270537E-06  -7.361420980602680E-06
  -7.547755580980775E-06  -7.738806205068183E-06  -7.934692185273358E-06
  -8.135535872135310E-06  -8.341462710585293E-06  -8.552601318131702E-06
  -8.769083565016489E-06  -8.991044656392763E-06  -9.218623216574174E-06
  -9.451961375408147E-06  -9.691204856826277E-06  -9.936503069626586E-06
  -1.018800920054338E-05  -1.044588030966251E-05  -1.071027742824041E-05
  -1.098136565898747E-05  -1.125931427887754E-05  -1.154429684454641E-05
  -1.183649130034481E-05  -1.213608008911187E-05  -1.244325026573739E-05
  -1.275819361358270E-05  -1.308110676383157E-05  -1.341219131784455E-05
  -1.375165397259186E-05  -1.409970664924162E-05  -1.445656662498270E-05
  -1.482245666816230E-05  -1.519760517682187E-05  -1.558224632071554E-05
  -1.597662018689838E-05  -1.638097292897349E-05  -1.679555692008884E-05
  -1.722063090977787E-05  -1.765646018473930E-05  -1.810331673365420E-05
  -1.856147941614133E-05  -1.903123413595294E-05  -1.951287401851742E-05
  -2.000669959293619E-05  -2.051301897854598E-05  -2.103214807615972E-05
  -2.156441076410212E-05  -2.211013909915924E-05  -2.266967352256365E-05
  -2.324336307114028E-05  -2.383156559374064E-05  -2.443464797309639E-05
  -2.505298635322650E-05  -2.568696637253543E-05  -2.633698340274280E-05
  -2.700344279378890E-05  -2.768676012486318E-05  -2.838736146170738E-05
  -2.910568362034753E-05  -2.984217443741341E-05  -3.059729304720794E-05
  -3.137151016569180E-05  -3.216530838155441E-05  -3.297918245454448E-05
  -3.381363962123866E-05  -3.466919990843117E-05  -3.554639645433002E-05
  -3.644577583775239E-05  -3.736789841551409E-05  -3.831333866821321E-05
  -3.928268555461403E-05  -4.027654287483924E-05  -4.129552964258719E-05
  -4.234028046659243E-05  -4.341144594155497E-05  -4.450969304876865E-05
  -4.563570556668288E-05  -4.679018449164019E-05  -4.797384846903472E-05
  -4.918743423514428E-05  -5.043169706989405E-05  -5.170741126081464E-05
  -5.301537057846568E-05  -5.435638876359997E-05  -5.573130002635024E-05
  -5.714095955772803E-05  -5.858624405372781E-05  -6.006805225234046E-05
  -6.158730548378232E-05  -6.314494823425612E-05  -6.474194872356657E-05
  -6.637929949691766E-05  -6.805801803123132E-05  -6.977914735632949E-05
  -7.154375669133099E-05  -7.335294209662421E-05  -7.520782714177929E-05
  -7.710956358977810E-05  -7.905933209794234E-05  -8.105834293595151E-05
  -8.310783672135064E-05  -8.520908517295332E-05  -8.736339188255911E-05
  -8.957209310540764E-05  -9.183655856980410E-05  -9.415819230635915E-05
  -9.653843349729240E-05  -9.897875734626335E-05  -1.014806759691972E-04
  -1.040457393065857E-04  -1.066755360577521E-04  -1.093716946375770E-04
  -1.121358841561953E-04  -1.149698154221801E-04  -1.178752419697418E-04
  -1.208539611104815E-04  -1.239078150102419E-04  -1.270386917916188E-04
  -1.302485266626980E-04  -1.335393030725952E-04  -1.369130538943907E-04
  -1.403718626360509E-04  -1.439178646799547E-04  -1.475532485516359E-04
  -1.512802572183763E-04  -1.551011894182882E-04  -1.590184010205351E-04
  -1.630343064173545E-04  -1.671513799485516E-04  -1.713721573591454E-04
  -1.756992372908599E-04  -1.801352828081589E-04  -1.846830229595383E-04
  -1.893452543747971E-04  -1.941248428990139E-04  -1.990247252639743E-04
  -2.040479107977919E-04  -2.091974831734878E-04  -2.144766021972886E-04
  -2.198885056374228E-04  -2.254365110941970E-04  -2.311240179121381E-04
  -2.369545091350078E-04  -2.429315535044857E-04  -2.490588075033353E-04
  -2.553400174438707E-04  -2.617790216025381E-04  -2.683797524014476E-04
  -2.751462386376776E-04  -2.820826077611864E-04  -2.891930882021660E-04
  -2.964820117486709E-04  -3.039538159753629E-04  -3.116130467242017E-04
  -3.194643606379180E-04  -3.275125277470996E-04  -3.357624341117103E-04
  -3.442190845178723E-04  -3.528876052307157E-04  -3.617732468041039E-04
  -3.708813869480304E-04  -3.802175334544607E-04  -3.897873271823994E-04
  -3.995965451029228E-04  -4.096511034049175E-04  -4.199570606622372E-04
  -4.305206210629604E-04  -4.413481377014266E-04  -4.524461159336741E-04
  -4.638212167968942E-04  -4.754802604934690E-04  -4.874302299401202E-04
  -4.996782743826737E-04  -5.122317130768761E-04  -5.250980390356663E-04
  -5.382849228432542E-04  -5.518002165362787E-04  -5.656519575522918E-04
  -5.798483727457197E-04  -5.943978824713854E-04  -6.093091047356190E-04
  -6.245908594148637E-04  -6.402521725416373E-04  -6.563022806575805E-04
  -6.727506352332360E-04  -6.896069071541003E-04  -7.068809912723417E-04
  -7.245830110235009E-04  -7.427233231073161E-04  -7.613125222316881E-04
  -7.803614459186618E-04  -7.998811793711063E-04  -8.198830603986491E-04
  -8.403786844011990E-04  -8.613799094082167E-04  -8.828988611716974E-04
  -9.049479383105715E-04  -9.275398175040597E-04  -9.506874587312187E-04
  -9.744041105536812E-04  -9.987033154383309E-04  -1.023598915116310E-03
  -1.049105055974534E-03  -1.075236194475488E-03  -1.102007102600764E-03
  -1.129432873313466E-03  -1.157528926034153E-03  -1.186311012124688E-03
  -1.215795220373837E-03  -1.245997982478084E-03  -1.276936078510622E-03
  -1.308626642370982E-03  -1.341087167207260E-03  -1.374335510802336E-03
  -1.408389900914881E-03  -1.443268940565394E-03  -1.478991613256772E-03
  -1.515577288118373E-03  -1.553045724961697E-03  -1.591417079235147E-03
  -1.630711906864535E-03  -1.670951168965126E-03  -1.712156236410266E-03
  -1.754348894240607E-03  -1.797551345897112E-03  -1.841786217259969E-03
  -1.887076560474487E-03  -1.933445857544080E-03  -1.980918023669157E-03
  -2.029517410309667E-03  -2.079268807947762E-03  -2.130197448525714E-03
  -2.182329007532971E-03  -2.235689605714693E-03  -2.290305810372741E-03
  -2.346204636228514E-03  -2.403413545815375E-03  -2.461960449366871E-03
  -2.521873704165056E-03  -2.583182113311521E-03  -2.645914923881839E-03
  -2.710101824422073E-03  -2.775772941744155E-03  -2.842958836974614E-03
  -2.911690500809087E-03  -2.981999347922730E-03  -3.053917210484205E-03
  -3.127476330718656E-03  -3.202709352462340E-03  -3.279649311649150E-03
  -3.358329625666438E-03  -3.438784081514787E-03  -3.521046822703553E-03
  -3.605152334810945E-03  -3.691135429634396E-03  -3.779031227853850E-03
  -3.868875140127253E-03  -3.960702846534395E-03  -4.054550274281661E-03
  -4.150453573576861E-03  -4.248449091579768E-03  -4.348573344330199E-03
  -4.450862986552010E-03  -4.555354779227355E-03  -4.662085554831848E-03
  -4.771092180117416E-03  -4.882411516325468E-03  -4.996080376709392E-03
  -5.112135481241021E-03  -5.230613408371910E-03  -5.351550543716244E-03
  -5.474983025517913E-03  -5.600946686760864E-03  -5.729476993777160E-03
  -5.860608981203847E-03  -5.994377183135894E-03  -6.130815560318225E-03
  -6.269957423217189E-03  -6.411835350807506E-03  -6.556481104908043E-03
  -6.703925539896880E-03  -6.854198507632644E-03  -7.007328757407720E-03
  -7.163343830755830E-03  -7.322269950935307E-03  -7.484131906908269E-03
  -7.648952931634236E-03  -7.816754574497728E-03  -7.987556567688557E-03
  -8.161376686355184E-03  -8.338230602353539E-03  -8.518131731415274E-03
  -8.701091073564321E-03  -8.887117046613810E-03  -9.076215312581855E-03
  -9.268388596871404E-03  -9.463636500066722E-03  -9.661955302209766E-03
  -9.863337759429457E-03  -1.006777289281033E-02  -1.027524576940156E-02
  -1.048573727528282E-02  -1.069922388062333E-02  -1.091567739668963E-02
  -1.113506472478187E-02  -1.135734759710376E-02  -1.158248230959912E-02
  -1.181041944682061E-02  -1.204110359892925E-02  -1.227447307096225E-02
  -1.251045958454794E-02  -1.274898797229065E-02  -1.298997586509920E-02
  -1.323333337278445E-02  -1.347896275830960E-02  -1.372675810614007E-02
  -1.397660498520533E-02  -1.422838010705948E-02  -1.448195097990321E-02
  -1.473717555921451E-02  -1.499390189582402E-02  -1.525196778236567E-02
  -1.551120039913571E-02  -1.577141596049968E-02  -1.603241936310201E-02
  -1.629400383725421E-02  -1.655595060300430E-02  -1.681802853252676E-02
  -1.707999382061225E-02  -1.734158966518654E-02  -1.760254595994368E-02
  -1.786257900134018E-02  -1.812139121236789E-02  -1.837867088569787E-02
  -1.863409194897009E-02  -1.888731375519240E-02  -1.913798090140349E-02
  -1.938572307895458E-02  -1.963015495896442E-02  -1.987087611670771E-02
  -2.010747099890424E-02  -2.033950893808181E-02  -2.056654421839526E-02
  -2.078811619748623E-02  -2.100374948917062E-02  -2.121295421193512E-02
  -2.141522630840955E-02  -2.161004794115928E-02  -2.179688797030187E-02
  -2.197520251859879E-02  -2.214443562979783E-02  -2.230402002610184E-02
  -2.245337797071429E-02  -2.259192224145060E-02  -2.271905722140888E-02
  -2.283418011265333E-02  -2.293668227877595E-02  -2.302595072206069E-02
  -2.310136970077131E-02  -2.316232249181444E-02  -2.320819330368589E-02
  -2.323836934418121E-02  -2.325224304683688E-02  -2.324921445945497E-02
  -2.322869379734531E-02  -2.319010416308620E-02  -2.313288443364934E-02
  -2.305649231464764E-02  -2.296040756023958E-02  -2.284413535585048E-02
  -2.270720985934361E-02  -2.254919789458507E-02  -2.236970278948931E-02
  -2.216836834860257E-02  -2.194488294807519E-02  -2.169898373848801E-02
  -2.143046093843488E-02  -2.113916219902001E-02  -2.082499701651633E-02
  -2.048794116735032E-02  -2.012804113634557E-02  -1.974541850578587E-02
  -1.934027426936478E-02  -1.891289303150404E-02  -1.846364704886951E-02
  -1.799300006723296E-02  -1.750151090316280E-02  -1.698983671642135E-02
  -1.645873591546842E-02  -1.590907063517551E-02  -1.534180872282455E-02
  -1.475802516578306E-02  -1.415890289199921E-02  -1.354573287276189E-02
  -1.291991345612084E-02  -1.228294885908990E-02  -1.163644674739506E-02
  -1.098211483320386E-02  -1.032175642414992E-02  -9.657264861173510E-03
  -8.990616788415260E-03  -8.323864205760411E-03  -7.659125263803893E-03
  -6.998573772140701E-03  -6.344427405109422E-03  -5.698934604575377E-03
  -5.064360197119007E-03  -4.442969763186319E-03  -3.837012818403600E-03
  -3.248704892350609E-03  -2.680208617589654E-03  -2.133613971531762E-03
  -1.610917845611137E-03  -1.114003149960930E-03  -6.446176969595140E-04
  -2.043531431845421E-04   2.053756941461041E-04   5.833507939738533E-04
   9.285697742051941E-04   1.240263200600993E-03   1.517909912599717E-03
   1.761249892536481E-03   1.970294186701807E-03   2.145331376738621E-03
   2.286930099871068E-03   2.395937128386321E-03   2.473470544777432E-03
   2.520907591196046E-03   2.539866832592504E-03   2.532184354351407E-03
   2.499883819469107E-03   2.445140339294754E-03   2.370238267190995E-03
   2.277523207376543E-03   2.169348742329370E-03   2.048018621375660E-03
   1.915725419476537E-03   1.774486966659591E-03   1.626082161628914E-03
   1.471988112897745E-03   1.313320890659411E-03   1.150782513914561E-03
   9.846171293418785E-04   8.160401656395894E-04   6.514652545257515E-04
   4.977761475174064E-04   3.606263449273672E-04   2.442381926198445E-04
   1.512240673244847E-04   8.243669559973577E-05   3.685609234815868E-05
   1.152096981182904E-05   1.512704028816536E-06  -5.551115123125783E-17
   0.000000000000000E+00   0.000000000000000E+00   0.000000000000000E+00
   0.000000000000000E+00   0.000000000000000E+00   0.000000000000000E+00
   0.000000000000000E+00   0.000000000000000E+00   0.000000000000000E+00
   0.000000000000000E+00   0.000000000000000E+00   0.000000000000000E+00
   0.000000000000000E+00   0.000000000000000E+00   0.000000000000000E+00
   0.000000000000000E+00   0.000000000000000E+00   0.000000000000000E+00
   0.000000000000000E+00   0.000000000000000E+00   0.000000000000000E+00
   0.000000000000000E+00   0.000000000000000E+00   0.000000000000000E+00
   0.000000000000000E+00   0.000000000000000E+00   0.000000000000000E+00
   0.000000000000000E+00   0.000000000000000E+00   0.000000000000000E+00
   0.000000000000000E+00   0.000000000000000E+00   0.000000000000000E+00
   0.000000000000000E+00   0.000000000000000E+00   0.000000000000000E+00
   0.000000000000000E+00   0.000000000000000E+00   0.000000000000000E+00
   0.000000000000000E+00   0.000000000000000E+00   0.000000000000000E+00
   0.000000000000000E+00   0.000000000000000E+00   0.000000000000000E+00
   0.000000000000000E+00   0.000000000000000E+00   0.000000000000000E+00
   0.000000000000000E+00   0.000000000000000E+00   0.000000000000000E+00
   0.000000000000000E+00   0.000000000000000E+00   0.000000000000000E+00
   0.000000000000000E+00   0.000000000000000E+00   0.000000000000000E+00
   0.000000000000000E+00   0.000000000000000E+00   0.000000000000000E+00
   0.000000000000000E+00   0.000000000000000E+00   0.000000000000000E+00
   0.000000000000000E+00   0.000000000000000E+00   0.000000000000000E+00
   0.000000000000000E+00   0.000000000000000E+00   0.000000000000000E+00
   0.000000000000000E+00   0.000000000000000E+00   0.000000000000000E+00
   0.000000000000000E+00   0.000000000000000E+00   0.000000000000000E+00
   0.000000000000000E+00   0.000000000000000E+00   0.000000000000000E+00
   0.000000000000000E+00   0.000000000000000E+00   0.000000000000000E+00
   0.000000000000000E+00   0.000000000000000E+00   0.000000000000000E+00
   0.000000000000000E+00   0.000000000000000E+00   0.000000000000000E+00
   0.000000000000000E+00   0.000000000000000E+00   0.000000000000000E+00
   0.000000000000000E+00   0.000000000000000E+00   0.000000000000000E+00
   0.000000000000000E+00   0.000000000000000E+00   0.000000000000000E+00
   0.000000000000000E+00   0.000000000000000E+00   0.000000000000000E+00
   0.000000000000000E+00   0.000000000000000E+00   0.000000000000000E+00
   0.000000000000000E+00   0.000000000000000E+00   0.000000000000000E+00
   0.000000000000000E+00   0.000000000000000E+00   0.000000000000000E+00
   0.000000000000000E+00   0.000000000000000E+00   0.000000000000000E+00
   0.000000000000000E+00   0.000000000000000E+00   0.000000000000000E+00
   0.000000000000000E+00   0.000000000000000E+00   0.000000000000000E+00
   0.000000000000000E+00   0.000000000000000E+00   0.000000000000000E+00
   0.000000000000000E+00   0.000000000000000E+00   0.000000000000000E+00
   0.000000000000000E+00   0.000000000000000E+00   0.000000000000000E+00
   0.000000000000000E+00   0.000000000000000E+00   0.000000000000000E+00
   0.000000000000000E+00   0.000000000000000E+00   0.000000000000000E+00
   0.000000000000000E+00   0.000000000000000E+00   0.000000000000000E+00
   0.000000000000000E+00   0.000000000000000E+00   0.000000000000000E+00
   0.000000000000000E+00   0.000000000000000E+00   0.000000000000000E+00
   0.000000000000000E+00   0.000000000000000E+00   0.000000000000000E+00
   0.000000000000000E+00   0.000000000000000E+00   0.000000000000000E+00
   0.000000000000000E+00   0.000000000000000E+00   0.000000000000000E+00
   0.000000000000000E+00   0.000000000000000E+00   0.000000000000000E+00
   0.000000000000000E+00   0.000000000000000E+00   0.000000000000000E+00
   0.000000000000000E+00   0.000000000000000E+00   0.000000000000000E+00
   0.000000000000000E+00   0.000000000000000E+00   0.000000000000000E+00
   0.000000000000000E+00   0.000000000000000E+00   0.000000000000000E+00
   0.000000000000000E+00   0.000000000000000E+00   0.000000000000000E+00
   0.000000000000000E+00   0.000000000000000E+00   0.000000000000000E+00
   0.000000000000000E+00   0.000000000000000E+00   0.000000000000000E+00
   0.000000000000000E+00   0.000000000000000E+00   0.000000000000000E+00
   0.000000000000000E+00   0.000000000000000E+00   0.000000000000000E+00
   0.000000000000000E+00   0.000000000000000E+00   0.000000000000000E+00
   0.000000000000000E+00   0.000000000000000E+00   0.000000000000000E+00
   0.000000000000000E+00   0.000000000000000E+00   0.000000000000000E+00
   0.000000000000000E+00   0.000000000000000E+00   0.000000000000000E+00
   0.000000000000000E+00   0.000000000000000E+00   0.000000000000000E+00
   0.000000000000000E+00   0.000000000000000E+00   0.000000000000000E+00
   0.000000000000000E+00   0.000000000000000E+00   0.000000000000000E+00
   0.000000000000000E+00   0.000000000000000E+00   0.000000000000000E+00
   0.000000000000000E+00   0.000000000000000E+00   0.000000000000000E+00
   0.000000000000000E+00   0.000000000000000E+00   0.000000000000000E+00
   0.000000000000000E+00   0.000000000000000E+00   0.000000000000000E+00
   0.000000000000000E+00   0.000000000000000E+00   0.000000000000000E+00
   0.000000000000000E+00   0.000000000000000E+00   0.000000000000000E+00
   0.000000000000000E+00   0.000000000000000E+00   0.000000000000000E+00
   0.000000000000000E+00   0.000000000000000E+00   0.000000000000000E+00
   0.000000000000000E+00   0.000000000000000E+00   0.000000000000000E+00
   0.000000000000000E+00   0.000000000000000E+00   0.000000000000000E+00
   0.000000000000000E+00   0.000000000000000E+00   0.000000000000000E+00
   0.000000000000000E+00   0.000000000000000E+00   0.000000000000000E+00
   0.000000000000000E+00   0.000000000000000E+00   0.000000000000000E+00
   0.000000000000000E+00   0.000000000000000E+00   0.000000000000000E+00
   0.000000000000000E+00   0.000000000000000E+00   0.000000000000000E+00
   0.000000000000000E+00   0.000000000000000E+00   0.000000000000000E+00
   0.000000000000000E+00   0.000000000000000E+00   0.000000000000000E+00
   0.000000000000000E+00   0.000000000000000E+00   0.000000000000000E+00
   0.000000000000000E+00   0.000000000000000E+00   0.000000000000000E+00
   0.000000000000000E+00   0.000000000000000E+00   0.000000000000000E+00
   0.000000000000000E+00   0.000000000000000E+00   0.000000000000000E+00
   0.000000000000000E+00   0.000000000000000E+00   0.000000000000000E+00
   0.000000000000000E+00   0.000000000000000E+00   0.000000000000000E+00
   0.000000000000000E+00   0.000000000000000E+00   0.000000000000000E+00
   0.000000000000000E+00   0.000000000000000E+00   0.000000000000000E+00
   0.000000000000000E+00   0.000000000000000E+00   0.000000000000000E+00
   0.000000000000000E+00   0.000000000000000E+00   0.000000000000000E+00
   0.000000000000000E+00   0.000000000000000E+00   0.000000000000000E+00
   0.000000000000000E+00   0.000000000000000E+00   0.000000000000000E+00
   0.000000000000000E+00   0.000000000000000E+00   0.000000000000000E+00
   0.000000000000000E+00   0.000000000000000E+00   0.000000000000000E+00
   0.000000000000000E+00   0.000000000000000E+00   0.000000000000000E+00
   0.000000000000000E+00   0.000000000000000E+00   0.000000000000000E+00
   0.000000000000000E+00   0.000000000000000E+00   0.000000000000000E+00
   0.000000000000000E+00   0.000000000000000E+00   0.000000000000000E+00
   0.000000000000000E+00   0.000000000000000E+00   0.000000000000000E+00
   0.000000000000000E+00
      </PP_QIJL.3.4.0>
      <PP_QIJL.3.4.2 first_index="3" second_index="4" composite_index="9" angular_momentum="2" size="1135">
  -1.482341429439556E-17  -1.558342699332626E-17  -1.638240637628096E-17
  -1.722235030784749E-17  -1.810535908531982E-17  -1.903364069053473E-17
  -2.000951631097636E-17  -2.103542614395379E-17  -2.211393549836481E-17
  -2.324774120930447E-17  -2.443967838155676E-17  -2.569272747883311E-17
  -2.701002177648372E-17  -2.839485519631751E-17  -2.985069054312224E-17
  -3.138116816347899E-17  -3.299011504852482E-17  -3.468155440342321E-17
  -3.645971570747173E-17  -3.832904529000335E-17  -4.029421744852407E-17
  -4.236014613689128E-17  -4.453199725275686E-17  -4.681520155500117E-17
  -4.921546824345856E-17  -5.173879923488863E-17  -5.439150417089415E-17
  -5.718021619531000E-17  -6.011190854051624E-17  -6.319391196415081E-17
  -6.643393307981900E-17  -6.984007362764127E-17  -7.342085073282088E-17
  -7.718521820289178E-17  -8.114258891689959E-17  -8.530285836249888E-17
  -8.967642937982477E-17  -9.427423817400931E-17  -9.910778166138741E-17
  -1.041891462177746E-16  -1.095310379006966E-16  -1.151468142211492E-16
  -1.210505175443294E-16  -1.272569102028581E-16  -1.337815114102983E-16
  -1.406406360672653E-16  -1.478514355571725E-16  -1.554319406336182E-16
  -1.634011065066550E-16  -1.717788602406829E-16  -1.805861505824811E-16
  -1.898450003439801E-16  -1.995785614707548E-16  -2.098111729339379E-16
  -2.205684215903192E-16  -2.318772061628005E-16  -2.437658045012058E-16
  -2.562639442916224E-16  -2.694028773910877E-16  -2.832154579734988E-16
  -2.977362246821420E-16  -3.130014869942771E-16  -3.290494160137266E-16
  -3.459201399184978E-16  -3.636558443021142E-16  -3.823008776595445E-16
  -4.019018622815215E-16  -4.225078108345285E-16  -4.441702489179645E-16
  -4.669433439049595E-16  -4.908840403889830E-16  -5.160522025749589E-16
  -5.425107639709229E-16  -5.703258847545320E-16  -5.995671172079367E-16
  -6.303075796346564E-16  -6.626241391933818E-16  -6.965976041058571E-16
  -7.323129257194666E-16  -7.698594109297978E-16  -8.093309454943209E-16
  -8.508262287956221E-16  -8.944490206411932E-16  -9.403084007169065E-16
  -9.885190413429745E-16  -1.039201494214363E-15  -1.092482491842730E-15
  -1.148495264453606E-15  -1.207379873131224E-15  -1.269283560044075E-15
  -1.334361116626861E-15  -1.402775270639571E-15  -1.474697093071477E-15
  -1.550306425907538E-15  -1.629792331826863E-15  -1.713353566957656E-15
  -1.801199077870871E-15  -1.893548524055222E-15  -1.990632827180066E-15
  -2.092694748519612E-15  -2.199989495982217E-15  -2.312785362262792E-15
  -2.431364395713943E-15  -2.556023105613382E-15  -2.687073203591205E-15
  -2.824842383070848E-15  -2.969675138672896E-15  -3.121933627630570E-15
  -3.281998575370909E-15  -3.450270227526090E-15  -3.627169350755318E-15
  -3.813138284879994E-15  -4.008642048962945E-15  -4.214169504097487E-15
  -4.430234575814023E-15  -4.657377539160549E-15  -4.896166369670772E-15
  -5.147198163597723E-15  -5.411100630964231E-15  -5.688533665163785E-15
  -5.980190993036311E-15  -6.286801909545276E-15  -6.609133101393360E-15
  -6.947990564136946E-15  -7.304221617593083E-15  -7.678717024578343E-15
  -8.072413218277833E-15  -8.486294643813668E-15  -8.921396219868108E-15
  -9.378805926516840E-15  -9.859667525742893E-15  -1.036518342143443E-14
  -1.089661766601748E-14  -1.145529912124190E-14  -1.204262478102425E-14
  -1.266006326465596E-14  -1.330915848911224E-14  -1.399153352964396E-14
  -1.470889467830606E-14  -1.546303571057103E-14  -1.625584237069582E-14
  -1.708929708705845E-14  -1.796548392925460E-14  -1.888659381934964E-14
  -1.985493001031726E-14  -2.087291384536251E-14  -2.194309081253207E-14
  -2.306813690975008E-14  -2.425086533619590E-14  -2.549423352675607E-14
  -2.680135054713891E-14  -2.817548486814502E-14  -2.962007253853193E-14
  -3.113872577691013E-14  -3.273524200415432E-14  -3.441361333891477E-14
  -3.617803657997399E-14  -3.803292370040841E-14  -3.998291287979600E-14
  -4.203288010205705E-14  -4.418795134792621E-14  -4.645351541254635E-14
  -4.883523738023207E-14  -5.133907279009772E-14  -5.397128252797250E-14
  -5.673844848183518E-14  -5.964748999992334E-14  -6.270568119266085E-14
  -6.592066912167536E-14  -6.930049292138384E-14  -7.285360390095721E-14
  -7.658888667693813E-14  -8.051568138934159E-14  -8.464380705680057E-14
  -8.898358612915230E-14  -9.354587029885385E-14  -9.834206763578223E-14
  -1.033841711132518E-13  -1.086847885965935E-13  -1.142571743692755E-13
  -1.201152622753928E-13  -1.262737005614120E-13  -1.327478885042735E-13
  -1.395540149174584E-13  -1.467090986312945E-13  -1.542310310487179E-13
  -1.621386208829197E-13  -1.704516411887183E-13  -1.791908788052804E-13
  -1.883781863338148E-13  -1.980365367801971E-13  -2.081900809991890E-13
  -2.188642080838522E-13  -2.300856088511930E-13  -2.418823425827691E-13
  -2.542839071871327E-13  -2.673213129595813E-13  -2.810271601236129E-13
  -2.954357203480075E-13  -3.105830224433593E-13  -3.265069424523221E-13
  -3.432472983588845E-13  -3.608459496534349E-13  -3.793469020026269E-13
  -3.987964172857507E-13  -4.192431292727344E-13  -4.407381652330808E-13
  -4.633352737797542E-13  -4.870909592677384E-13  -5.120646230833134E-13
  -5.383187121773095E-13  -5.659188752138158E-13  -5.949341267247013E-13
  -6.254370196804791E-13  -6.575038269090058E-13  -6.912147318156075E-13
  -7.266540288816131E-13  -7.639103344425283E-13  -8.030768082729750E-13
  -8.442513865324385E-13  -8.875370266542568E-13  -9.330419647902813E-13
  -9.808799864548219E-13  -1.031170711044705E-12  -1.084039890946856E-12
  -1.139619725981237E-12  -1.198049193965550E-12  -1.259474398228078E-12
  -1.324048932937748E-12  -1.391934267164876E-12  -1.463300148632817E-12
  -1.538325028170289E-12  -1.617196505925443E-12  -1.700111800457613E-12
  -1.787278241879621E-12  -1.878913790283591E-12  -1.975247580746848E-12
  -2.076520496280303E-12  -2.182985770152238E-12  -2.294909619093431E-12
  -2.412571908966835E-12  -2.536266854566523E-12  -2.666303755295368E-12
  -2.803007768561228E-12  -2.946720722825340E-12  -3.097801972335860E-12
  -3.256629295683859E-12  -3.423599840428360E-12  -3.599131116152555E-12
  -3.783662038434141E-12  -3.977654026340105E-12  -4.181592156190256E-12
  -4.395986374474233E-12  -4.621372772954868E-12  -4.858314929146150E-12
  -5.107405315517439E-12  -5.369266780947610E-12  -5.644554108133172E-12
  -5.933955650844671E-12  -6.238195055125007E-12  -6.558033068733233E-12
  -6.894269443358430E-12  -7.247744934359436E-12  -7.619343403030934E-12
  -8.009994026652106E-12  -8.420673621843655E-12  -8.852409087042754E-12
  -9.306279970202547E-12  -9.783421168136610E-12  -1.028502576425765E-11
  -1.081234801180536E-11  -1.136670647002320E-11  -1.194948730112465E-11
  -1.256214773629320E-11  -1.320621971938182E-11  -1.388331373742206E-11
  -1.459512284752080E-11  -1.534342691021246E-11  -1.613009703985163E-11
  -1.695710028317361E-11  -1.782650453771971E-11  -1.874048372242590E-11
  -1.970132321330161E-11  -2.071142555778989E-11  -2.177331648209630E-11
  -2.288965120650580E-11  -2.406322108447837E-11  -2.529696058212146E-11
  -2.659395461549072E-11  -2.795744626406334E-11  -2.939084487966872E-11
  -3.089773461115190E-11  -3.248188336608149E-11  -3.414725223190912E-11
  -3.589800538013497E-11  -3.773852047824026E-11  -3.967339963542029E-11
  -4.170748090948182E-11  -4.384585040367535E-11  -4.609385498370554E-11
  -4.845711564671276E-11  -5.094154157565202E-11  -5.355334491420409E-11
  -5.629905629915944E-11  -5.918554118910695E-11  -6.222001703024821E-11
  -6.541007130225679E-11  -6.876368048929378E-11  -7.228923002361111E-11
  -7.599553525160089E-11  -7.989186347470462E-11  -8.398795712028848E-11
  -8.829405810040639E-11  -9.282093341935128E-11  -9.757990209401114E-11
  -1.025828634543267E-10  -1.078423268946053E-10  -1.133714431500594E-10
  -1.191840371767653E-10  -1.252946427172337E-10  -1.317185386380005E-10
  -1.384717871300812E-10  -1.455712738677780E-10  -1.530347502262337E-10
  -1.608808776632641E-10  -1.691292743764202E-10  -1.778005643518978E-10
  -1.869164289279229E-10  -1.964996610014914E-10  -2.065742220139713E-10
  -2.171653018580140E-10  -2.282993818555124E-10  -2.400043009640424E-10
  -2.523093253772653E-10  -2.652452216932697E-10  -2.788443338337470E-10
  -2.931406639062461E-10  -3.081699572116470E-10  -3.239697916093124E-10
  -3.405796714632882E-10  -3.580411264043715E-10  -3.763978151548735E-10
  -3.956956346756066E-10  -4.159828349078645E-10  -4.373101393971883E-10
  -4.597308721003956E-10  -4.833010906927759E-10  -5.080797267086494E-10
  -5.341287328655064E-10  -5.615132379399196E-10  -5.903017095822983E-10
  -6.205661254773449E-10  -6.523821532779918E-10  -6.858293397624526E-10
  -7.209913096870952E-10  -7.579559748320704E-10  -7.968157537620583E-10
  -8.376678028513160E-10  -8.806142591502964E-10  -9.257624957007164E-10
  -9.732253899370581E-10  -1.023121605845103E-09  -1.075575890582589E-09
  -1.130719386303072E-09  -1.188689957962118E-09  -1.249632537924872E-09
  -1.313699488235925E-09  -1.381050981456668E-09  -1.451855401021514E-09
  -1.526289762113240E-09  -1.604540154108901E-09  -1.686802205701552E-09
  -1.773281573859823E-09  -1.864194457846697E-09  -1.959768139581554E-09
  -2.060241551695280E-09  -2.165865874697291E-09  -2.276905164424864E-09
  -2.393637013724954E-09  -2.516353242042937E-09  -2.645360630792070E-09
  -2.780981684522758E-09  -2.923555437900919E-09  -3.073438308957491E-09
  -3.231004981735745E-09  -3.396649343783502E-09  -3.570785476838710E-09
  -3.753848685040993E-09  -3.946296585320535E-09  -4.148610253502956E-09
  -4.361295417738112E-09  -4.584883732197236E-09  -4.819934102699056E-09
  -5.067034076265236E-09  -5.326801319784062E-09  -5.599885154710708E-09
  -5.886968188289224E-09  -6.188768005431055E-09  -6.506038981088283E-09
  -6.839574138266443E-09  -7.190207162082411E-09  -7.558814454036252E-09
  -7.946317340134564E-09  -8.353684341027285E-09  -8.781933660078964E-09
  -9.232135642926227E-09  -9.705415503010135E-09  -1.020295612545363E-08
  -1.072600100700087E-08  -1.127585738172856E-08  -1.185389946513737E-08
  -1.246157188780227E-08  -1.310039333526210E-08  -1.377196031000568E-08
  -1.447795111677002E-08  -1.522013006804002E-08  -1.600035188287562E-08
  -1.682056633717228E-08  -1.768282308358654E-08  -1.858927684446845E-08
  -1.954219270789385E-08  -2.054395185455511E-08  -2.159705744254491E-08
  -2.270414093009402E-08  -2.386796856224876E-08  -2.509144833383171E-08
  -2.637763723204635E-08  -2.772974886379528E-08  -2.915116146359270E-08
  -3.064542637536373E-08  -3.221627685692338E-08  -3.386763744395650E-08
  -3.560363368131530E-08  -3.742860250389533E-08  -3.934710299202835E-08
  -4.136392779176840E-08  -4.348411500554392E-08  -4.571296086697853E-08
  -4.805603285217106E-08  -5.051918362523695E-08  -5.310856562453683E-08
  -5.583064641505660E-08  -5.869222481278036E-08  -6.170044781508584E-08
  -6.486282848859927E-08  -6.818726464417438E-08  -7.168205857750765E-08
  -7.535593772503544E-08  -7.921807645172484E-08  -8.327811891741391E-08
  -8.754620312895427E-08  -9.203298615371275E-08  -9.674967079922377E-08
  -1.017080333801863E-07  -1.069204532124952E-07  -1.123999433643407E-07
  -1.181601830738557E-07  -1.242155519267951E-07  -1.305811655736166E-07
  -1.372729134476742E-07  -1.443074982648551E-07  -1.517024777380854E-07
  -1.594763081329398E-07  -1.676483904125185E-07  -1.762391184150673E-07
  -1.852699296033695E-07  -1.947633585108361E-07  -2.047430927859621E-07
  -2.152340320891592E-07  -2.262623501445967E-07  -2.378555597644308E-07
  -2.500425813429374E-07  -2.628538147622864E-07  -2.763212149938765E-07
  -2.904783715690172E-07  -3.053605920646598E-07  -3.210049898939228E-07
  -3.374505765132285E-07  -3.547383584249361E-07  -3.729114389982238E-07
  -3.920151255859424E-07  -4.120970420231794E-07  -4.332072469821713E-07
  -4.553983581525961E-07  -4.787256829163210E-07  -5.032473556522182E-07
  -5.290244819477155E-07  -5.561212902618127E-07  -5.846052911810868E-07
  -6.145474449051593E-07  -6.460223372221696E-07  -6.791083643061557E-07
  -7.138879271326593E-07  -7.504476356390575E-07  -7.888785232301013E-07
  -8.292762722854445E-07  -8.717414511311634E-07  -9.163797629402401E-07
  -9.633023073753753E-07  -1.012625855435496E-06  -1.064473138385794E-06
  -1.118973151179625E-06  -1.176261471417109E-06  -1.236480594402880E-06
  -1.299780285245354E-06  -1.366317948736851E-06  -1.436259018089105E-06
  -1.509777363241257E-06  -1.587055719930639E-06  -1.668286140483279E-06
  -1.753670467383548E-06  -1.843420830866217E-06  -1.937760171582895E-06
  -2.036922789787432E-06  -2.141154922331351E-06  -2.250715348650526E-06
  -2.365876027421138E-06  -2.486922765522736E-06  -2.614155920496161E-06
  -2.747891138708630E-06  -2.888460130488747E-06  -3.036211484588995E-06
  -3.191511523440356E-06  -3.354745201738734E-06  -3.526317050001350E-06
  -3.706652165819930E-06  -3.896197254861068E-06  -4.095421724203236E-06
  -4.304818830581289E-06  -4.524906886389962E-06  -4.756230526118719E-06
  -4.999362036333744E-06  -5.254902752317571E-06  -5.523484524767921E-06
  -5.805771259820621E-06  -6.102460536181187E-06  -6.414285303219429E-06
  -6.742015663679268E-06  -7.086460745784325E-06  -7.448470668393669E-06
  -7.828938604457317E-06  -8.228802947138432E-06  -8.649049583889870E-06
  -9.090714283613627E-06  -9.554885202634103E-06  -1.004270551499627E-05
  -1.055537617344890E-05  -1.109415880740073E-05  -1.166037876429553E-05
  -1.225542830178711E-05  -1.288076993755248E-05  -1.353793996492885E-05
  -1.422855214176093E-05  -1.495430156147281E-05  -1.571696871462486E-05
  -1.651842375044721E-05  -1.736063094785359E-05  -1.824565340589447E-05
  -1.917565796435715E-05  -2.015292036535665E-05  -2.117983066739580E-05
  -2.225889892403852E-05  -2.339276113967888E-05  -2.458418551546864E-05
  -2.583607899934062E-05  -2.715149415414381E-05  -2.853363635928240E-05
  -2.998587136101755E-05  -3.151173318822629E-05  -3.311493245034933E-05
  -3.479936503547498E-05  -3.656912122711093E-05  -3.842849525911945E-05
  -4.038199532876934E-05  -4.243435408928812E-05  -4.459053964377998E-05
  -4.685576706342428E-05  -4.923551045377572E-05  -5.173551559425569E-05
  -5.436181317650853E-05  -5.712073266867049E-05  -6.001891683383126E-05
  -6.306333693156960E-05  -6.626130863330196E-05  -6.962050868275073E-05
  -7.314899233466944E-05  -7.685521160570737E-05  -8.074803437301762E-05
  -8.483676435746502E-05  -8.913116202943368E-05  -9.364146647717340E-05
  -9.837841827836371E-05  -1.033532834179505E-04  -1.085778782959472E-04
  -1.140645958711480E-04  -1.198264329877713E-04  -1.258770189341786E-04
  -1.322306452837571E-04  -1.389022970705483E-04  -1.459076853529985E-04
  -1.532632812217142E-04  -1.609863513081459E-04  -1.690949948530893E-04
  -1.776081823957567E-04  -1.865457961455991E-04  -1.959286721006251E-04
  -2.057786439781880E-04  -2.161185890250059E-04  -2.269724757756869E-04
  -2.383654138295401E-04  -2.503237057179919E-04  -2.628749009353266E-04
  -2.760478522076271E-04  -2.898727740752479E-04  -3.043813038659466E-04
  -3.196065651361358E-04  -3.355832336587556E-04  -3.523476060371792E-04
  -3.699376710243561E-04  -3.883931836270208E-04  -4.077557420747091E-04
  -4.280688677326956E-04  -4.493780880375813E-04  -4.717310225331267E-04
  -4.951774720824004E-04  -5.197695113307978E-04  -5.455615844918249E-04
  -5.726106045247974E-04  -6.009760557705118E-04  -6.307201001066817E-04
  -6.619076866798875E-04  -6.946066652663923E-04  -7.288879033066839E-04
  -7.648254066524920E-04  -8.024964440563458E-04  -8.419816754251302E-04
  -8.833652838483280E-04  -9.267351114007325E-04  -9.721827987065586E-04
  -1.019803928237404E-03  -1.069698171301517E-03  -1.121969438664061E-03
  -1.176726034719079E-03  -1.234080815113504E-03  -1.294151347699891E-03
  -1.357060076670137E-03  -1.422934489694957E-03  -1.491907287863772E-03
  -1.564116558187781E-03  -1.639705948393574E-03  -1.718824843696186E-03
  -1.801628545200020E-03  -1.888278449530515E-03  -1.978942229252106E-03
  -2.073794013575615E-03  -2.173014568802707E-03  -2.276791477895203E-03
  -2.385319318492273E-03  -2.498799838630471E-03  -2.617442129347078E-03
  -2.741462793268938E-03  -2.871086108205466E-03  -3.006544184674135E-03
  -3.148077116192805E-03  -3.295933121071519E-03  -3.450368674329777E-03
  -3.611648628252409E-03  -3.780046319976377E-03  -3.955843664376155E-03
  -4.139331230380971E-03  -4.330808298718202E-03  -4.530582898930711E-03
  -4.738971823361577E-03  -4.956300615640417E-03  -5.182903531037061E-03
  -5.419123465875295E-03  -5.665311853019031E-03  -5.921828520255294E-03
  -6.189041508208245E-03  -6.467326844217931E-03  -6.757068268416490E-03
  -7.058656908027317E-03  -7.372490895700917E-03  -7.698974927490890E-03
  -8.038519755857022E-03  -8.391541612869900E-03  -8.758461558579204E-03
  -9.139704749296967E-03  -9.535699620345488E-03  -9.946876977620667E-03
  -1.037366899213624E-02  -1.081650809154065E-02  -1.127582574243802E-02
  -1.175205111720884E-02  -1.224560963890677E-02  -1.275692139772129E-02
  -1.328639943243936E-02  -1.383444787031658E-02  -1.440145991879489E-02
  -1.498781570257079E-02  -1.559387993964628E-02  -1.621999945018247E-02
  -1.686650049223043E-02  -1.753368591875235E-02  -1.822183215076287E-02
  -1.893118596193885E-02  -1.966196107066699E-02  -2.041433453623145E-02
  -2.118844295671025E-02  -2.198437846714319E-02  -2.280218453768357E-02
  -2.364185157275448E-02  -2.450331231370557E-02  -2.538643704913731E-02
  -2.629102863891467E-02  -2.721681735996707E-02  -2.816345558426311E-02
  -2.913051230186901E-02  -3.011746750477375E-02  -3.112370645017826E-02
  -3.214851382523234E-02  -3.319106783875411E-02  -3.425043426928594E-02
  -3.532556050294844E-02  -3.641526959892105E-02  -3.751825442502969E-02
  -3.863307191083160E-02  -3.975813747074328E-02  -4.089171965515963E-02
  -4.203193509310732E-02  -4.317674379576154E-02  -4.432394489607804E-02
  -4.547117290580002E-02  -4.661589457716084E-02  -4.775540646261525E-02
  -4.888683327185166E-02  -5.000712713105421E-02  -5.111306785479230E-02
  -5.220126434592166E-02  -5.326815724331992E-02  -5.431002294103600E-02
  -5.532297910532485E-02  -5.630299181788730E-02  -5.724588447426278E-02
  -5.814734856549116E-02  -5.900295646866917E-02  -5.980817636761999E-02
  -6.055838941831766E-02  -6.124890926471092E-02  -6.187500399887987E-02
  -6.243192064477650E-02  -6.291491222685799E-02  -6.331926746344610E-02
  -6.364034309939103E-02  -6.387359886332258E-02  -6.401463500124054E-02
  -6.405923230024282E-02  -6.400339447369413E-02  -6.384339273203544E-02
  -6.357581231173687E-02  -6.319760067871243E-02  -6.270611706205317E-02
  -6.209918290954582E-02  -6.137513278859956E-02  -6.053286518557474E-02
  -5.957189258391328E-02  -5.849239012796324E-02  -5.729524210623801E-02
  -5.598208541653722E-02  -5.455534910767577E-02  -5.301828903049813E-02
  -5.137501657673704E-02  -4.963052044063053E-02  -4.779068030788548E-02
  -4.586227136263951E-02  -4.385295850876718E-02  -4.177127923069954E-02
  -3.962661407437576E-02  -3.742914381463587E-02  -3.518979249480853E-02
  -3.292015568073380E-02  -3.063241346804004E-02  -2.833922802059204E-02
  -2.605362570148078E-02  -2.378886418661244E-02  -2.155828532455260E-02
  -1.937515492316349E-02  -1.725249110025698E-02  -1.520288332662487E-02
  -1.323830480770867E-02  -1.136992138453437E-02  -9.607900672339395E-03
  -7.961225680353701E-03  -6.437517649160274E-03  -5.042873280326148E-03
  -3.781721890686578E-03  -2.656708271934698E-03  -1.668607143422297E-03
  -8.162750186994500E-04  -9.664502943282013E-05   4.952302710792382E-04
   9.660839021621917E-04   1.324284133511117E-03   1.579627174515444E-03
   1.743072997169165E-03   1.826426566886329E-03   1.841969259276936E-03
   1.802048071883795E-03   1.718633352984070E-03   1.602859095417856E-03
   1.464563284851110E-03   1.311849221065021E-03   1.150691987071181E-03
   9.846171293418811E-04   8.160401656395894E-04   6.514652545257515E-04
   4.977761475174064E-04   3.606263449273672E-04   2.442381926198445E-04
   1.512240673244847E-04   8.243669559973577E-05   3.685609234815868E-05
   1.152096981182904E-05   1.512704028816536E-06  -5.551115123125783E-17
   0.000000000000000E+00   0.000000000000000E+00   0.000000000000000E+00
   0.000000000000000E+00   0.000000000000000E+00   0.000000000000000E+00
   0.000000000000000E+00   0.000000000000000E+00   0.000000000000000E+00
   0.000000000000000E+00   0.000000000000000E+00   0.000000000000000E+00
   0.000000000000000E+00   0.000000000000000E+00   0.000000000000000E+00
   0.000000000000000E+00   0.000000000000000E+00   0.000000000000000E+00
   0.000000000000000E+00   0.000000000000000E+00   0.000000000000000E+00
   0.000000000000000E+00   0.000000000000000E+00   0.000000000000000E+00
   0.000000000000000E+00   0.000000000000000E+00   0.000000000000000E+00
   0.000000000000000E+00   0.000000000000000E+00   0.000000000000000E+00
   0.000000000000000E+00   0.000000000000000E+00   0.000000000000000E+00
   0.000000000000000E+00   0.000000000000000E+00   0.000000000000000E+00
   0.000000000000000E+00   0.000000000000000E+00   0.000000000000000E+00
   0.000000000000000E+00   0.000000000000000E+00   0.000000000000000E+00
   0.000000000000000E+00   0.000000000000000E+00   0.000000000000000E+00
   0.000000000000000E+00   0.000000000000000E+00   0.000000000000000E+00
   0.000000000000000E+00   0.000000000000000E+00   0.000000000000000E+00
   0.000000000000000E+00   0.000000000000000E+00   0.000000000000000E+00
   0.000000000000000E+00   0.000000000000000E+00   0.000000000000000E+00
   0.000000000000000E+00   0.000000000000000E+00   0.000000000000000E+00
   0.000000000000000E+00   0.000000000000000E+00   0.000000000000000E+00
   0.000000000000000E+00   0.000000000000000E+00   0.000000000000000E+00
   0.000000000000000E+00   0.000000000000000E+00   0.000000000000000E+00
   0.000000000000000E+00   0.000000000000000E+00   0.000000000000000E+00
   0.000000000000000E+00   0.000000000000000E+00   0.000000000000000E+00
   0.000000000000000E+00   0.000000000000000E+00   0.000000000000000E+00
   0.000000000000000E+00   0.000000000000000E+00   0.000000000000000E+00
   0.000000000000000E+00   0.000000000000000E+00   0.000000000000000E+00
   0.000000000000000E+00   0.000000000000000E+00   0.000000000000000E+00
   0.000000000000000E+00   0.000000000000000E+00   0.000000000000000E+00
   0.000000000000000E+00   0.000000000000000E+00   0.000000000000000E+00
   0.000000000000000E+00   0.000000000000000E+00   0.000000000000000E+00
   0.000000000000000E+00   0.000000000000000E+00   0.000000000000000E+00
   0.000000000000000E+00   0.000000000000000E+00   0.000000000000000E+00
   0.000000000000000E+00   0.000000000000000E+00   0.000000000000000E+00
   0.000000000000000E+00   0.000000000000000E+00   0.000000000000000E+00
   0.000000000000000E+00   0.000000000000000E+00   0.000000000000000E+00
   0.000000000000000E+00   0.000000000000000E+00   0.000000000000000E+00
   0.000000000000000E+00   0.000000000000000E+00   0.000000000000000E+00
   0.000000000000000E+00   0.000000000000000E+00   0.000000000000000E+00
   0.000000000000000E+00   0.000000000000000E+00   0.000000000000000E+00
   0.000000000000000E+00   0.000000000000000E+00   0.000000000000000E+00
   0.000000000000000E+00   0.000000000000000E+00   0.000000000000000E+00
   0.000000000000000E+00   0.000000000000000E+00   0.000000000000000E+00
   0.000000000000000E+00   0.000000000000000E+00   0.000000000000000E+00
   0.000000000000000E+00   0.000000000000000E+00   0.000000000000000E+00
   0.000000000000000E+00   0.000000000000000E+00   0.000000000000000E+00
   0.000000000000000E+00   0.000000000000000E+00   0.000000000000000E+00
   0.000000000000000E+00   0.000000000000000E+00   0.000000000000000E+00
   0.000000000000000E+00   0.000000000000000E+00   0.000000000000000E+00
   0.000000000000000E+00   0.000000000000000E+00   0.000000000000000E+00
   0.000000000000000E+00   0.000000000000000E+00   0.000000000000000E+00
   0.000000000000000E+00   0.000000000000000E+00   0.000000000000000E+00
   0.000000000000000E+00   0.000000000000000E+00   0.000000000000000E+00
   0.000000000000000E+00   0.000000000000000E+00   0.000000000000000E+00
   0.000000000000000E+00   0.000000000000000E+00   0.000000000000000E+00
   0.000000000000000E+00   0.000000000000000E+00   0.000000000000000E+00
   0.000000000000000E+00   0.000000000000000E+00   0.000000000000000E+00
   0.000000000000000E+00   0.000000000000000E+00   0.000000000000000E+00
   0.000000000000000E+00   0.000000000000000E+00   0.000000000000000E+00
   0.000000000000000E+00   0.000000000000000E+00   0.000000000000000E+00
   0.000000000000000E+00   0.000000000000000E+00   0.000000000000000E+00
   0.000000000000000E+00   0.000000000000000E+00   0.000000000000000E+00
   0.000000000000000E+00   0.000000000000000E+00   0.000000000000000E+00
   0.000000000000000E+00   0.000000000000000E+00   0.000000000000000E+00
   0.000000000000000E+00   0.000000000000000E+00   0.000000000000000E+00
   0.000000000000000E+00   0.000000000000000E+00   0.000000000000000E+00
   0.000000000000000E+00   0.000000000000000E+00   0.000000000000000E+00
   0.000000000000000E+00   0.000000000000000E+00   0.000000000000000E+00
   0.000000000000000E+00   0.000000000000000E+00   0.000000000000000E+00
   0.000000000000000E+00   0.000000000000000E+00   0.000000000000000E+00
   0.000000000000000E+00   0.000000000000000E+00   0.000000000000000E+00
   0.000000000000000E+00   0.000000000000000E+00   0.000000000000000E+00
   0.000000000000000E+00   0.000000000000000E+00   0.000000000000000E+00
   0.000000000000000E+00   0.000000000000000E+00   0.000000000000000E+00
   0.000000000000000E+00   0.000000000000000E+00   0.000000000000000E+00
   0.000000000000000E+00   0.000000000000000E+00   0.000000000000000E+00
   0.000000000000000E+00   0.000000000000000E+00   0.000000000000000E+00
   0.000000000000000E+00   0.000000000000000E+00   0.000000000000000E+00
   0.000000000000000E+00   0.000000000000000E+00   0.000000000000000E+00
   0.000000000000000E+00   0.000000000000000E+00   0.000000000000000E+00
   0.000000000000000E+00   0.000000000000000E+00   0.000000000000000E+00
   0.000000000000000E+00   0.000000000000000E+00   0.000000000000000E+00
   0.000000000000000E+00   0.000000000000000E+00   0.000000000000000E+00
   0.000000000000000E+00   0.000000000000000E+00   0.000000000000000E+00
   0.000000000000000E+00   0.000000000000000E+00   0.000000000000000E+00
   0.000000000000000E+00   0.000000000000000E+00   0.000000000000000E+00
   0.000000000000000E+00   0.000000000000000E+00   0.000000000000000E+00
   0.000000000000000E+00   0.000000000000000E+00   0.000000000000000E+00
   0.000000000000000E+00   0.000000000000000E+00   0.000000000000000E+00
   0.000000000000000E+00   0.000000000000000E+00   0.000000000000000E+00
   0.000000000000000E+00   0.000000000000000E+00   0.000000000000000E+00
   0.000000000000000E+00   0.000000000000000E+00   0.000000000000000E+00
   0.000000000000000E+00   0.000000000000000E+00   0.000000000000000E+00
   0.000000000000000E+00   0.000000000000000E+00   0.000000000000000E+00
   0.000000000000000E+00   0.000000000000000E+00   0.000000000000000E+00
   0.000000000000000E+00   0.000000000000000E+00   0.000000000000000E+00
   0.000000000000000E+00   0.000000000000000E+00   0.000000000000000E+00
   0.000000000000000E+00   0.000000000000000E+00   0.000000000000000E+00
   0.000000000000000E+00   0.000000000000000E+00   0.000000000000000E+00
   0.000000000000000E+00   0.000000000000000E+00   0.000000000000000E+00
   0.000000000000000E+00   0.000000000000000E+00   0.000000000000000E+00
   0.000000000000000E+00   0.000000000000000E+00   0.000000000000000E+00
   0.000000000000000E+00
      </PP_QIJL.3.4.2>
      <PP_QIJL.4.4.0 first_index="4" second_index="4" composite_index="10" angular_momentum="0" size="1135">
  -2.433206386417315E-08  -2.494803298285386E-08  -2.557959543346733E-08
  -2.622714596306276E-08  -2.689108931175720E-08  -2.757184046571088E-08
  -2.826982491650718E-08  -2.898547892709852E-08  -2.971924980448471E-08
  -3.047159617929451E-08  -3.124298829244425E-08  -3.203390828905368E-08
  -3.284485051980229E-08  -3.367632184991426E-08  -3.452884197596584E-08
  -3.540294375071207E-08  -3.629917351613713E-08  -3.721809144493569E-08
  -3.816027189063864E-08  -3.912630374660300E-08  -4.011679081408863E-08
  -4.113235217965380E-08  -4.217362260210405E-08  -4.324125290923686E-08
  -4.433591040463015E-08  -4.545827928472794E-08  -4.660906106648556E-08
  -4.778897502584004E-08  -4.899875864728057E-08  -5.023916808480034E-08
  -5.151097863451647E-08  -5.281498521925537E-08  -5.415200288540461E-08
  -5.552286731234327E-08  -5.692843533476833E-08  -5.836958547824349E-08
  -5.984721850830581E-08  -6.136225799347312E-08  -6.291565088250360E-08
  -6.450836809626945E-08  -6.614140513461272E-08  -6.781578269856499E-08
  -6.953254732831778E-08  -7.129277205734361E-08  -7.309755708307635E-08
  -7.494803045456901E-08  -7.684534877756074E-08  -7.879069793739206E-08
  -8.078529384022077E-08  -8.283038317300230E-08  -8.492724418270800E-08
  -8.707718747527033E-08  -8.928155683475311E-08  -9.154173006325895E-08
  -9.385911984209967E-08  -9.623517461476600E-08  -9.867137949225097E-08
  -1.011692571812910E-07  -1.037303689361058E-07  -1.063563155342315E-07
  -1.090487382770568E-07  -1.118093200156879E-07  -1.146397862027836E-07
  -1.175419059710172E-07  -1.205174932388404E-07  -1.235684078442385E-07
  -1.266965567071875E-07  -1.299038950215395E-07  -1.331924274770787E-07
  -1.365642095125165E-07  -1.400213486002037E-07  -1.435660055633668E-07
  -1.472003959266896E-07  -1.509267913010850E-07  -1.547475208035232E-07
  -1.586649725128004E-07  -1.626815949621630E-07  -1.667998986697166E-07
  -1.710224577075769E-07  -1.753519113107449E-07  -1.797909655267092E-07
  -1.843423949068092E-07  -1.890090442404154E-07  -1.937938303330087E-07
  -1.986997438292752E-07  -2.037298510823482E-07  -2.088872960703740E-07
  -2.141753023615935E-07  -2.195971751291700E-07  -2.251563032170243E-07
  -2.308561612579628E-07  -2.367003118454287E-07  -2.426924077602316E-07
  -2.488361942536436E-07  -2.551355113882965E-07  -2.615942964383330E-07
  -2.682165863503234E-07  -2.750065202664766E-07  -2.819683421117271E-07
  -2.891064032463163E-07  -2.964251651855183E-07  -3.039292023882220E-07
  -3.116232051161008E-07  -3.195119823651650E-07  -3.276004648715272E-07
  -3.358937081932532E-07  -3.443968958702357E-07  -3.531153426640569E-07
  -3.620544978798687E-07  -3.712199487723674E-07  -3.806174240379865E-07
  -3.902527973954981E-07  -4.001320912572557E-07  -4.102614804933721E-07
  -4.206472962911922E-07  -4.312960301124606E-07  -4.422143377506706E-07
  -4.534090434911221E-07  -4.648871443762902E-07  -4.766558145791748E-07
  -4.887224098873536E-07  -5.010944723005562E-07  -5.137797347446195E-07
  -5.267861259047793E-07  -5.401217751813170E-07  -5.537950177706502E-07
  -5.678143998750600E-07  -5.821886840442951E-07  -5.969268546523989E-07
  -6.120381235131869E-07  -6.275319356378660E-07  -6.434179751384204E-07
  -6.597061712804312E-07  -6.764067046891265E-07  -6.935300137125375E-07
  -7.110868009457268E-07  -7.290880399201869E-07  -7.475449819625735E-07
  -7.664691632270659E-07  -7.858724119057541E-07  -8.057668556215440E-07
  -8.261649290082249E-07  -8.470793814824135E-07  -8.685232852122469E-07
  -8.905100432878045E-07  -9.130533980983470E-07  -9.361674399216381E-07
  -9.598666157306926E-07  -9.841657382234641E-07  -1.009079995081124E-06
  -1.034624958460694E-06  -1.060816594727996E-06  -1.087671274436977E-06
  -1.115205782561663E-06  -1.143437328987130E-06  -1.172383559266033E-06
  -1.202062565647456E-06  -1.232492898384934E-06  -1.263693577330732E-06
  -1.295684103823645E-06  -1.328484472877698E-06  -1.362115185679428E-06
  -1.396597262401508E-06  -1.431952255340741E-06  -1.468202262388655E-06
  -1.505369940843053E-06  -1.543478521569246E-06  -1.582551823519723E-06
  -1.622614268621401E-06  -1.663690897039735E-06  -1.705807382829192E-06
  -1.748990049979973E-06  -1.793265888870869E-06  -1.838662573138651E-06
  -1.885208476974501E-06  -1.932932692858232E-06  -1.981865049741517E-06
  -2.032036131691326E-06  -2.083477297005357E-06  -2.136220697811349E-06
  -2.190299300162483E-06  -2.245746904641565E-06  -2.302598167486691E-06
  -2.360888622251740E-06  -2.420654702015174E-06  -2.481933762150973E-06
  -2.544764103676090E-06  -2.609184997188806E-06  -2.675236707413128E-06
  -2.742960518364490E-06  -2.812398759152419E-06  -2.883594830436484E-06
  -2.956593231551810E-06  -3.031439588321316E-06  -3.108180681571973E-06
  -3.186864476372833E-06  -3.267540152013295E-06  -3.350258132740101E-06
  -3.435070119272453E-06  -3.522029121114899E-06  -3.611189489688054E-06
  -3.702606952298134E-06  -3.796338646966194E-06  -3.892443158139111E-06
  -3.990980553304510E-06  -4.092012420532420E-06  -4.195601906967396E-06
  -4.301813758294818E-06  -4.410714359206272E-06  -4.522371774889258E-06
  -4.636855793566974E-06  -4.754237970115089E-06  -4.874591670782383E-06
  -4.997992119043489E-06  -5.124516442612279E-06  -5.254243721645139E-06
  -5.387255038164611E-06  -5.523633526733816E-06  -5.663464426413697E-06
  -5.806835134035410E-06  -5.953835258821010E-06  -6.104556678386905E-06
  -6.259093596164648E-06  -6.417542600275267E-06  -6.580002723893833E-06
  -6.746575507141755E-06  -6.917365060545970E-06  -7.092478130104064E-06
  -7.272024163996459E-06  -7.456115380987160E-06  -7.644866840555633E-06
  -7.838396514804071E-06  -8.036825362184414E-06  -8.240277403091606E-06
  -8.448879797370236E-06  -8.662762923782617E-06  -8.882060461488686E-06
  -9.106909473587753E-06  -9.337450492774959E-06  -9.573827609165706E-06
  -9.816188560342676E-06  -1.006468482368232E-05  -1.031947171101771E-05
  -1.058070846569751E-05  -1.084855836210137E-05  -1.112318880767396E-05
  -1.140477144754146E-05  -1.169348227177569E-05  -1.198950172537304E-05
  -1.229301482101684E-05  -1.260421125469344E-05  -1.292328552423452E-05
  -1.325043705085931E-05  -1.358587030379288E-05  -1.392979492803832E-05
  -1.428242587538232E-05  -1.464398353871639E-05  -1.501469388975714E-05
  -1.539478862025208E-05  -1.578450528675874E-05  -1.618408745908765E-05
  -1.659378487250198E-05  -1.701385358376862E-05  -1.744455613115840E-05
  -1.788616169849521E-05  -1.833894628335632E-05  -1.880319286952926E-05
  -1.927919160383251E-05  -1.976723997741069E-05  -2.026764301161740E-05
  -2.078071344860134E-05  -2.130677194671552E-05  -2.184614728087046E-05
  -2.239917654795739E-05  -2.296620537746921E-05  -2.354758814745045E-05
  -2.414368820591174E-05  -2.475487809784602E-05  -2.538153979798902E-05
  -2.602406494946889E-05  -2.668285510849353E-05  -2.735832199522924E-05
  -2.805088775102618E-05  -2.876098520215188E-05  -2.948905813019716E-05
  -3.023556154932277E-05  -3.100096199052041E-05  -3.178573779306477E-05
  -3.259037940333884E-05  -3.341538968121889E-05  -3.426128421420968E-05
  -3.512859163952671E-05  -3.601785397432546E-05  -3.692962695428424E-05
  -3.786448038075159E-05  -3.882299847667427E-05  -3.980578025152872E-05
  -4.081343987548230E-05  -4.184660706301861E-05  -4.290592746626574E-05
  -4.399206307827199E-05  -4.510569264648166E-05  -4.624751209666723E-05
  -4.741823496758339E-05  -4.861859285661314E-05  -4.984933587668319E-05
  -5.111123312473483E-05  -5.240507316204027E-05  -5.373166450666534E-05
  -5.509183613838447E-05  -5.648643801636203E-05  -5.791634160992396E-05
  -5.938244044274846E-05  -6.088565065081573E-05  -6.242691155446428E-05
  -6.400718624490874E-05  -6.562746218558604E-05  -6.728875182870247E-05
  -6.899209324736696E-05  -7.073855078370299E-05  -7.252921571334246E-05
  -7.436520692671584E-05  -7.624767162756093E-05  -7.817778604908648E-05
  -8.015675618823442E-05  -8.218581855849959E-05  -8.426624096177134E-05
  -8.639932327968136E-05  -8.858639828494643E-05  -9.082883247321167E-05
  -9.312802691591156E-05  -9.548541813467691E-05  -9.790247899783383E-05
  -1.003807196395493E-04  -1.029216884021949E-04  -1.055269728025149E-04
  -1.081982005221967E-04  -1.109370404234599E-04  -1.137452035902946E-04
  -1.166244443959940E-04  -1.195765615976453E-04  -1.226033994582541E-04
  -1.257068488972047E-04  -1.288888486697629E-04  -1.321513865763574E-04
  -1.354965007023877E-04  -1.389262806893248E-04  -1.424428690378969E-04
  -1.460484624441630E-04  -1.497453131693038E-04  -1.535357304439791E-04
  -1.574220819081172E-04  -1.614067950870320E-04  -1.654923589047780E-04
  -1.696813252356805E-04  -1.739763104950003E-04  -1.783799972697150E-04
  -1.828951359904273E-04  -1.875245466454311E-04  -1.922711205379952E-04
  -1.971378220879503E-04  -2.021276906786881E-04  -2.072438425507171E-04
  -2.124894727429408E-04  -2.178678570828542E-04  -2.233823542268889E-04
  -2.290364077521595E-04  -2.348335483009054E-04  -2.407773957789445E-04
  -2.468716616094928E-04  -2.531201510437411E-04  -2.595267655295995E-04
  -2.660955051400801E-04  -2.728304710627993E-04  -2.797358681521332E-04
  -2.868160075455963E-04  -2.940753093460401E-04  -3.015183053713290E-04
  -3.091496419731699E-04  -3.169740829268287E-04  -3.249965123935026E-04
  -3.332219379571580E-04  -3.416554937376997E-04  -3.503024435823691E-04
  -3.591681843373259E-04  -3.682582492014088E-04  -3.775783111641291E-04
  -3.871341865299820E-04  -3.969318385312435E-04  -4.069773810314358E-04
  -4.172770823217308E-04  -4.278373690125967E-04  -4.386648300230471E-04
  -4.497662206699353E-04  -4.611484668597593E-04  -4.728186693855295E-04
  -4.847841083313097E-04  -4.970522475870845E-04  -5.096307394767052E-04
  -5.225274295017012E-04  -5.357503612038288E-04  -5.493077811492957E-04
  -5.632081440376614E-04  -5.774601179385020E-04  -5.920725896589875E-04
  -6.070546702456020E-04  -6.224157006233209E-04  -6.381652573756109E-04
  -6.543131586687473E-04  -6.708694703239779E-04  -6.878445120411748E-04
  -7.052488637776982E-04  -7.230933722862714E-04  -7.413891578157769E-04
  -7.601476209789609E-04  -7.793804497911291E-04  -7.990996268840275E-04
  -8.193174368991635E-04  -8.400464740649843E-04  -8.612996499623633E-04
  -8.830902014830028E-04  -9.054316989854468E-04  -9.283380546534914E-04
  -9.518235310619326E-04  -9.759027499546705E-04  -1.000590701240310E-03
  -1.025902752210543E-03  -1.051854656986664E-03  -1.078462566199765E-03
  -1.105743036910225E-03  -1.133713042772257E-03  -1.162389984449417E-03
  -1.191791700287081E-03  -1.221936477248091E-03  -1.252843062117827E-03
  -1.284530672985185E-03  -1.317019011006037E-03  -1.350328272455884E-03
  -1.384479161078618E-03  -1.419492900738416E-03  -1.455391248381944E-03
  -1.492196507318236E-03  -1.529931540823718E-03  -1.568619786080112E-03
  -1.608285268452975E-03  -1.648952616118939E-03  -1.690647075049798E-03
  -1.733394524361767E-03  -1.777221492038501E-03  -1.822155171036497E-03
  -1.868223435781823E-03  -1.915454859067224E-03  -1.963878729358830E-03
  -2.013525068521958E-03  -2.064424649975616E-03  -2.116609017285541E-03
  -2.170110503205815E-03  -2.224962249179238E-03  -2.281198225306965E-03
  -2.338853250797958E-03  -2.397963014909130E-03  -2.458564098387248E-03
  -2.520693995423766E-03  -2.584391136134151E-03  -2.649694909573318E-03
  -2.716645687299079E-03  -2.785284847495741E-03  -2.855654799670104E-03
  -2.927799009932504E-03  -3.001762026875575E-03  -3.077589508063746E-03
  -3.155328247146687E-03  -3.235026201610058E-03  -3.316732521177287E-03
  -3.400497576876146E-03  -3.486372990784255E-03  -3.574411666467805E-03
  -3.664667820127911E-03  -3.757197012469453E-03  -3.852056181307220E-03
  -3.949303674924533E-03  -4.048999286199705E-03  -4.151204287515787E-03
  -4.255981466469464E-03  -4.363395162394922E-03  -4.473511303718824E-03
  -4.586397446162740E-03  -4.702122811809342E-03  -4.820758329049187E-03
  -4.942376673424706E-03  -5.067052309388410E-03  -5.194861532992371E-03
  -5.325882515526069E-03  -5.460195348120080E-03  -5.597882087332849E-03
  -5.739026801738085E-03  -5.883715619530413E-03  -6.032036777166669E-03
  -6.184080669060772E-03  -6.339939898349592E-03  -6.499709328747566E-03
  -6.663486137507698E-03  -6.831369869506408E-03  -7.003462492469826E-03
  -7.179868453358875E-03  -7.360694735930325E-03  -7.546050919491002E-03
  -7.736049238861841E-03  -7.930804645568614E-03  -8.130434870275510E-03
  -8.335060486477671E-03  -8.544804975468345E-03  -8.759794792595744E-03
  -8.980159434824643E-03  -9.206031509616748E-03  -9.437546805143590E-03
  -9.674844361845104E-03  -9.918066545345917E-03  -1.016735912074134E-02
  -1.042287132826344E-02  -1.068475596033730E-02  -1.095316944003602E-02
  -1.122827190094229E-02  -1.151022726842331E-02  -1.179920334232392E-02
  -1.209537188108224E-02  -1.239890868727007E-02  -1.270999369455880E-02
  -1.302881105611018E-02  -1.335554923438901E-02  -1.369040109239318E-02
  -1.403356398629421E-02  -1.438523985947899E-02  -1.474563533798163E-02
  -1.511496182729085E-02  -1.549343561051631E-02  -1.588127794789402E-02
  -1.627871517760756E-02  -1.668597881789921E-02  -1.710330567044070E-02
  -1.753093792493007E-02  -1.796912326487697E-02  -1.841811497453391E-02
  -1.887817204692756E-02  -1.934955929293809E-02  -1.983254745137033E-02
  -2.032741329995483E-02  -2.083443976721064E-02  -2.135391604509660E-02
  -2.188613770237061E-02  -2.243140679856959E-02  -2.299003199851641E-02
  -2.356232868725109E-02  -2.414861908527720E-02  -2.474923236400423E-02
  -2.536450476125905E-02  -2.599477969672939E-02  -2.664040788719205E-02
  -2.730174746136923E-02  -2.797916407424382E-02  -2.867303102065364E-02
  -2.938372934797233E-02  -3.011164796767094E-02  -3.085718376554169E-02
  -3.162074171035001E-02  -3.240273496066647E-02  -3.320358496961451E-02
  -3.402372158725194E-02  -3.486358316028901E-02  -3.572361662882498E-02
  -3.660427761976742E-02  -3.750603053657806E-02  -3.842934864496629E-02
  -3.937471415413196E-02  -4.034261829313281E-02  -4.133356138192930E-02
  -4.234805289663381E-02  -4.338661152846258E-02  -4.444976523586413E-02
  -4.553805128926477E-02  -4.665201630784373E-02  -4.779221628771753E-02
  -4.895921662087850E-02  -5.015359210420011E-02  -5.137592693778208E-02
  -5.262681471187212E-02  -5.390685838156090E-02  -5.521667022840412E-02
  -5.655687180808471E-02  -5.792809388318071E-02  -5.933097634005863E-02
  -6.076616808886381E-02  -6.223432694552605E-02  -6.373611949465022E-02
  -6.527222093210186E-02  -6.684331488604491E-02  -6.845009321512735E-02
  -7.009325578244884E-02  -7.177351020388409E-02  -7.349157156926586E-02
  -7.524816213486636E-02  -7.704401098554459E-02  -7.887985366485287E-02
  -8.075643177132460E-02  -8.267449251908338E-02  -8.463478826083670E-02
  -8.663807597123536E-02  -8.868511668849141E-02  -9.077667491206762E-02
  -9.291351795415456E-02  -9.509641524256600E-02  -9.732613757258708E-02
  -9.960345630521253E-02  -1.019291425091203E-01  -1.043039660436199E-01
  -1.067286945797166E-01  -1.092040925563326E-01  -1.117309200686137E-01
  -1.143099316851567E-01  -1.169418751908738E-01  -1.196274902521133E-01
  -1.223675070005435E-01  -1.251626445321973E-01  -1.280136093179765E-01
  -1.309210935217971E-01  -1.338857732224624E-01  -1.369083065352393E-01
  -1.399893316290159E-01  -1.431294646348229E-01  -1.463292974414014E-01
  -1.495893953734132E-01  -1.529102947478075E-01  -1.562925003037708E-01
  -1.597364825016281E-01  -1.632426746859897E-01  -1.668114701083884E-01
  -1.704432188046134E-01  -1.741382243219053E-01  -1.778967402911739E-01
  -1.817189668393860E-01  -1.856050468372923E-01  -1.895550619776966E-01
  -1.935690286795158E-01  -1.976468938129766E-01  -2.017885302413720E-01
  -2.059937321749507E-01  -2.102622103326723E-01  -2.145935869077373E-01
  -2.189873903330606E-01  -2.234430498430987E-01  -2.279598898287704E-01
  -2.325371239825728E-01  -2.371738492313841E-01  -2.418690394549372E-01
  -2.466215389884429E-01  -2.514300559084457E-01  -2.562931551016493E-01
  -2.612092511171556E-01  -2.661766008033971E-01  -2.711932957319006E-01
  -2.762572544110151E-01  -2.813662142938153E-01  -2.865177235855385E-01
  -2.917091328572365E-01  -2.969375864736775E-01  -3.022000138450822E-01
  -3.074931205139180E-01  -3.128133790897357E-01  -3.181570200469948E-01
  -3.235200224028572E-01  -3.288981042941881E-01  -3.342867134753935E-01
  -3.396810177612725E-01  -3.450758954418428E-01  -3.504659256989953E-01
  -3.558453790579830E-01  -3.612082079100757E-01  -3.665480371462151E-01
  -3.718581549452903E-01  -3.771315037645652E-01  -3.823606715839951E-01
  -3.875378834605668E-01  -3.926549934533892E-01  -3.977034769851541E-01
  -4.026744237106096E-01  -4.075585309680033E-01  -4.123460978949572E-01
  -4.170270202959204E-01  -4.215907863542850E-01  -4.260264732883119E-01
  -4.303227450562862E-01  -4.344678512227259E-01  -4.384496271039765E-01
  -4.422554953181730E-01  -4.458724688711993E-01  -4.492871559169970E-01
  -4.524857663372486E-01  -4.554541202920449E-01  -4.581776588996344E-01
  -4.606414572095889E-01  -4.628302396397277E-01  -4.647283980527555E-01
  -4.663200126537427E-01  -4.675888758942005E-01  -4.685185195724396E-01
  -4.690922453230607E-01  -4.692931586906402E-01  -4.691042069838118E-01
  -4.685082211058446E-01  -4.674879615562870E-01  -4.660261687951239E-01
  -4.641056181559451E-01  -4.617091794876617E-01  -4.588198816950773E-01
  -4.554209823369033E-01  -4.514960424253212E-01  -4.470290065536807E-01
  -4.420042884581260E-01  -4.364068620945092E-01  -4.302223582836604E-01
  -4.234371669455836E-01  -4.160385449061124E-01  -4.080147292177872E-01
  -3.993550558897287E-01  -3.900500838689918E-01  -3.800917240578272E-01
  -3.694733730873032E-01  -3.581900514976314E-01  -3.462385458989480E-01
  -3.336175546033274E-01  -3.203278361290822E-01  -3.063723598820702E-01
  -2.917564582158539E-01  -2.764879789630449E-01  -2.605774374146318E-01
  -2.440381666025253E-01  -2.268864646136879E-01  -2.091417375327538E-01
  -1.908266364745186E-01  -1.719671870295994E-01  -1.525929093067210E-01
  -1.327369266152492E-01  -1.124360606935723E-01  -9.173091125438698E-02
  -7.066591748977907E-02  -4.928939905931998E-02  -2.765357397655133E-02
  -5.814550716560396E-03   1.616770820677405E-02   3.822945399624747E-02
   6.030325348579213E-02   8.231812803194866E-02   1.041997321547292E-01
   1.258705746122578E-01   1.472502844568507E-01   1.682559244294909E-01
   1.888023537984458E-01   2.088026424300761E-01   2.281685374899340E-01
   2.468109837036424E-01   2.646406975549657E-01   2.815687951575138E-01
   2.975074728026516E-01   3.123707383565270E-01   3.260751907513740E-01
   3.385408437906710E-01   3.496919893657590E-01   3.594580939672734E-01
   3.677747210752528E-01   3.745844706366561E-01   3.798379254022461E-01
   3.834945924136602E-01   3.855238264284104E-01   3.859057205724521E-01
   3.846319480493114E-01   3.817065373496898E-01   3.771465621399683E-01
   3.709827259123109E-01   3.632598206093676E-01   3.540370378552182E-01
   3.433881111989294E-01   3.314012679809357E-01   3.181789701420562E-01
   3.038374245900385E-01   2.885058456997422E-01   2.723254552296210E-01
   2.554482084650041E-01   2.380352398159441E-01   2.202550264618738E-01
   2.022812749892715E-01   1.842905433334223E-01   1.664596187073887E-01
   1.489626815434087E-01   1.319682957089354E-01   1.156362762699789E-01
   1.001144976834542E-01   8.553571727376755E-02   7.201450088488925E-02
   5.964434932384977E-02   4.849513517356985E-02   3.861096922033798E-02
   3.000862350250463E-02   2.267664315195261E-02   1.657528100831356E-02
   1.163738661747958E-02   7.770373818785259E-03   4.859377798993536E-03
   2.771692378875479E-03   1.362550585419064E-03   4.822755364323195E-04
  -1.521623012984419E-05  -2.626309416763339E-04  -3.683685696058703E-04
  -4.046560714374703E-04  -4.000470947060769E-04  -3.648578118731274E-04
  -3.094311287412943E-04  -2.437058941517772E-04  -1.766214684376516E-04
  -1.155641186274398E-04  -6.588741020691069E-05  -3.053854076290330E-05
  -9.820655133357947E-06  -1.317383556992402E-06   0.000000000000000E+00
   0.000000000000000E+00   0.000000000000000E+00   0.000000000000000E+00
   0.000000000000000E+00   0.000000000000000E+00   0.000000000000000E+00
   0.000000000000000E+00   0.000000000000000E+00   0.000000000000000E+00
   0.000000000000000E+00   0.000000000000000E+00   0.000000000000000E+00
   0.000000000000000E+00   0.000000000000000E+00   0.000000000000000E+00
   0.000000000000000E+00   0.000000000000000E+00   0.000000000000000E+00
   0.000000000000000E+00   0.000000000000000E+00   0.000000000000000E+00
   0.000000000000000E+00   0.000000000000000E+00   0.000000000000000E+00
   0.000000000000000E+00   0.000000000000000E+00   0.000000000000000E+00
   0.000000000000000E+00   0.000000000000000E+00   0.000000000000000E+00
   0.000000000000000E+00   0.000000000000000E+00   0.000000000000000E+00
   0.000000000000000E+00   0.000000000000000E+00   0.000000000000000E+00
   0.000000000000000E+00   0.000000000000000E+00   0.000000000000000E+00
   0.000000000000000E+00   0.000000000000000E+00   0.000000000000000E+00
   0.000000000000000E+00   0.000000000000000E+00   0.000000000000000E+00
   0.000000000000000E+00   0.000000000000000E+00   0.000000000000000E+00
   0.000000000000000E+00   0.000000000000000E+00   0.000000000000000E+00
   0.000000000000000E+00   0.000000000000000E+00   0.000000000000000E+00
   0.000000000000000E+00   0.000000000000000E+00   0.000000000000000E+00
   0.000000000000000E+00   0.000000000000000E+00   0.000000000000000E+00
   0.000000000000000E+00   0.000000000000000E+00   0.000000000000000E+00
   0.000000000000000E+00   0.000000000000000E+00   0.000000000000000E+00
   0.000000000000000E+00   0.000000000000000E+00   0.000000000000000E+00
   0.000000000000000E+00   0.000000000000000E+00   0.000000000000000E+00
   0.000000000000000E+00   0.000000000000000E+00   0.000000000000000E+00
   0.000000000000000E+00   0.000000000000000E+00   0.000000000000000E+00
   0.000000000000000E+00   0.000000000000000E+00   0.000000000000000E+00
   0.000000000000000E+00   0.000000000000000E+00   0.000000000000000E+00
   0.000000000000000E+00   0.000000000000000E+00   0.000000000000000E+00
   0.000000000000000E+00   0.000000000000000E+00   0.000000000000000E+00
   0.000000000000000E+00   0.000000000000000E+00   0.000000000000000E+00
   0.000000000000000E+00   0.000000000000000E+00   0.000000000000000E+00
   0.000000000000000E+00   0.000000000000000E+00   0.000000000000000E+00
   0.000000000000000E+00   0.000000000000000E+00   0.000000000000000E+00
   0.000000000000000E+00   0.000000000000000E+00   0.000000000000000E+00
   0.000000000000000E+00   0.000000000000000E+00   0.000000000000000E+00
   0.000000000000000E+00   0.000000000000000E+00   0.000000000000000E+00
   0.000000000000000E+00   0.000000000000000E+00   0.000000000000000E+00
   0.000000000000000E+00   0.000000000000000E+00   0.000000000000000E+00
   0.000000000000000E+00   0.000000000000000E+00   0.000000000000000E+00
   0.000000000000000E+00   0.000000000000000E+00   0.000000000000000E+00
   0.000000000000000E+00   0.000000000000000E+00   0.000000000000000E+00
   0.000000000000000E+00   0.000000000000000E+00   0.000000000000000E+00
   0.000000000000000E+00   0.000000000000000E+00   0.000000000000000E+00
   0.000000000000000E+00   0.000000000000000E+00   0.000000000000000E+00
   0.000000000000000E+00   0.000000000000000E+00   0.000000000000000E+00
   0.000000000000000E+00   0.000000000000000E+00   0.000000000000000E+00
   0.000000000000000E+00   0.000000000000000E+00   0.000000000000000E+00
   0.000000000000000E+00   0.000000000000000E+00   0.000000000000000E+00
   0.000000000000000E+00   0.000000000000000E+00   0.000000000000000E+00
   0.000000000000000E+00   0.000000000000000E+00   0.000000000000000E+00
   0.000000000000000E+00   0.000000000000000E+00   0.000000000000000E+00
   0.000000000000000E+00   0.000000000000000E+00   0.000000000000000E+00
   0.000000000000000E+00   0.000000000000000E+00   0.000000000000000E+00
   0.000000000000000E+00   0.000000000000000E+00   0.000000000000000E+00
   0.000000000000000E+00   0.000000000000000E+00   0.000000000000000E+00
   0.000000000000000E+00   0.000000000000000E+00   0.000000000000000E+00
   0.000000000000000E+00   0.000000000000000E+00   0.000000000000000E+00
   0.000000000000000E+00   0.000000000000000E+00   0.000000000000000E+00
   0.000000000000000E+00   0.000000000000000E+00   0.000000000000000E+00
   0.000000000000000E+00   0.000000000000000E+00   0.000000000000000E+00
   0.000000000000000E+00   0.000000000000000E+00   0.000000000000000E+00
   0.000000000000000E+00   0.000000000000000E+00   0.000000000000000E+00
   0.000000000000000E+00   0.000000000000000E+00   0.000000000000000E+00
   0.000000000000000E+00   0.000000000000000E+00   0.000000000000000E+00
   0.000000000000000E+00   0.000000000000000E+00   0.000000000000000E+00
   0.000000000000000E+00   0.000000000000000E+00   0.000000000000000E+00
   0.000000000000000E+00   0.000000000000000E+00   0.000000000000000E+00
   0.000000000000000E+00   0.000000000000000E+00   0.000000000000000E+00
   0.000000000000000E+00   0.000000000000000E+00   0.000000000000000E+00
   0.000000000000000E+00   0.000000000000000E+00   0.000000000000000E+00
   0.000000000000000E+00   0.000000000000000E+00   0.000000000000000E+00
   0.000000000000000E+00   0.000000000000000E+00   0.000000000000000E+00
   0.000000000000000E+00   0.000000000000000E+00   0.000000000000000E+00
   0.000000000000000E+00   0.000000000000000E+00   0.000000000000000E+00
   0.000000000000000E+00   0.000000000000000E+00   0.000000000000000E+00
   0.000000000000000E+00   0.000000000000000E+00   0.000000000000000E+00
   0.000000000000000E+00   0.000000000000000E+00   0.000000000000000E+00
   0.000000000000000E+00   0.000000000000000E+00   0.000000000000000E+00
   0.000000000000000E+00   0.000000000000000E+00   0.000000000000000E+00
   0.000000000000000E+00   0.000000000000000E+00   0.000000000000000E+00
   0.000000000000000E+00   0.000000000000000E+00   0.000000000000000E+00
   0.000000000000000E+00   0.000000000000000E+00   0.000000000000000E+00
   0.000000000000000E+00   0.000000000000000E+00   0.000000000000000E+00
   0.000000000000000E+00   0.000000000000000E+00   0.000000000000000E+00
   0.000000000000000E+00   0.000000000000000E+00   0.000000000000000E+00
   0.000000000000000E+00   0.000000000000000E+00   0.000000000000000E+00
   0.000000000000000E+00   0.000000000000000E+00   0.000000000000000E+00
   0.000000000000000E+00   0.000000000000000E+00   0.000000000000000E+00
   0.000000000000000E+00   0.000000000000000E+00   0.000000000000000E+00
   0.000000000000000E+00   0.000000000000000E+00   0.000000000000000E+00
   0.000000000000000E+00   0.000000000000000E+00   0.000000000000000E+00
   0.000000000000000E+00   0.000000000000000E+00   0.000000000000000E+00
   0.000000000000000E+00   0.000000000000000E+00   0.000000000000000E+00
   0.000000000000000E+00   0.000000000000000E+00   0.000000000000000E+00
   0.000000000000000E+00   0.000000000000000E+00   0.000000000000000E+00
   0.000000000000000E+00   0.000000000000000E+00   0.000000000000000E+00
   0.000000000000000E+00   0.000000000000000E+00   0.000000000000000E+00
   0.000000000000000E+00   0.000000000000000E+00   0.000000000000000E+00
   0.000000000000000E+00   0.000000000000000E+00   0.000000000000000E+00
   0.000000000000000E+00   0.000000000000000E+00   0.000000000000000E+00
   0.000000000000000E+00   0.000000000000000E+00   0.000000000000000E+00
   0.000000000000000E+00   0.000000000000000E+00   0.000000000000000E+00
   0.000000000000000E+00
      </PP_QIJL.4.4.0>
      <PP_QIJL.4.4.2 first_index="4" second_index="4" composite_index="10" angular_momentum="2" size="1135">
  -1.362536541716693E-17  -1.432395283734607E-17  -1.505835760021661E-17
  -1.583041610018764E-17  -1.664205888562159E-17  -1.749531548621023E-17
  -1.839231948785597E-17  -1.933531386774775E-17  -2.032665660297193E-17
  -2.136882656668328E-17  -2.246442972657841E-17  -2.361620566117220E-17
  -2.482703441017084E-17  -2.609994367607067E-17  -2.743811639499160E-17
  -2.884489869567420E-17  -3.032380826654451E-17  -3.187854315176679E-17
  -3.351299099827938E-17  -3.523123877693720E-17  -3.703758300206614E-17
  -3.893654047498684E-17  -4.093285957836966E-17  -4.303153214966401E-17
  -4.523780596329172E-17  -4.755719785281470E-17  -4.999550750589237E-17
  -5.255883196652028E-17  -5.525358088081468E-17  -5.808649252446612E-17
  -6.106465065193588E-17  -6.419550220953161E-17  -6.748687595664988E-17
  -7.094700204175109E-17  -7.458453258201641E-17  -7.840856329814438E-17
  -8.242865625838913E-17  -8.665486378870945E-17  -9.109775360881696E-17
  -9.576843525697867E-17  -1.006785878696446E-16  -1.058404893853710E-16
  -1.112670472460580E-16  -1.169718306722743E-16  -1.229691045933741E-16
  -1.292738653172444E-16  -1.359018780288835E-16  -1.428697162115702E-16
  -1.501948030891991E-16  -1.578954551934125E-16  -1.659909281644615E-16
  -1.745014649003318E-16  -1.834483461745264E-16  -1.928539438490753E-16
  -2.027417768158389E-16  -2.131365698059760E-16  -2.240643152146434E-16
  -2.355523380955118E-16  -2.476293644876235E-16  -2.603255932454424E-16
  -2.736727715517051E-16  -2.877042743019026E-16  -3.024551875588893E-16
  -3.179623962862990E-16  -3.342646765801543E-16  -3.514027926292809E-16
  -3.694195986469963E-16  -3.883601460289454E-16  -4.082717960050305E-16
  -4.292043380671376E-16  -4.512101144687672E-16  -4.743441511079088E-16
  -4.986642951204162E-16  -5.242313595279441E-16  -5.511092753021528E-16
  -5.793652512253874E-16  -6.090699419476066E-16  -6.402976246597682E-16
  -6.731263848254457E-16  -7.076383114351150E-16  -7.439197022713263E-16
  -7.820612796980571E-16  -8.221584175138147E-16  -8.643113794357367E-16
  -9.086255698110478E-16  -9.552117971827352E-16  -1.004186551368550E-15
  -1.055672294746131E-15  -1.109797768472635E-15  -1.166698314404594E-15
  -1.226516213522924E-15  -1.289401041709363E-15  -1.355510043763963E-15
  -1.425008526598839E-15  -1.498070272591419E-15  -1.574877974130707E-15
  -1.655623690443261E-15  -1.740509327841093E-15  -1.829747144592402E-15
  -1.923560281677605E-15  -2.022183320757734E-15  -2.125862870750541E-15
  -2.234858184480951E-15  -2.349441806947850E-15  -2.469900256828255E-15
  -2.596534742922837E-15  -2.729661917334460E-15  -2.869614667262965E-15
  -3.016742947396103E-15  -3.171414654978092E-15  -3.334016549743796E-15
  -3.504955221018982E-15  -3.684658104404817E-15  -3.873574550588846E-15
  -4.072176948955130E-15  -4.280961908802923E-15  -4.500451501127841E-15
  -4.731194564070396E-15  -4.973768075296270E-15  -5.228778594740055E-15
  -5.496863781319846E-15  -5.778693987415581E-15  -6.074973935097826E-15
  -6.386444478298698E-15  -6.713884455331143E-15  -7.058112636388708E-15
  -7.419989770895861E-15  -7.800420739828027E-15  -8.200356818383340E-15
  -8.620798054664095E-15  -9.062795770315430E-15  -9.527455189374655E-15
  -1.001593820190429E-14  -1.052946626931955E-14  -1.106932347867505E-14
  -1.163685975354780E-14  -1.223349422954569E-14  -1.286071880288186E-14
  -1.352010186088801E-14  -1.421329220379528E-14  -1.494202316758851E-14
  -1.570811695824396E-14  -1.651348920818761E-14  -1.736015376636789E-14
  -1.825022773392056E-14  -1.918593675801688E-14  -2.016962059713337E-14
  -2.120373897165833E-14  -2.229087771446504E-14  -2.343375523683151E-14
  -2.463522932587382E-14  -2.589830429049158E-14  -2.722613847369284E-14
  -2.862205215008376E-14  -3.008953582827085E-14  -3.163225897893491E-14
  -3.325407921040327E-14  -3.495905191466232E-14  -3.675144040793065E-14
  -3.863572659115052E-14  -4.061662215705183E-14  -4.269908037181530E-14
  -4.488830846079198E-14  -4.718978062925132E-14  -4.960925175071710E-14
  -5.215277175711481E-14  -5.482670076672073E-14  -5.763772498773128E-14
  -6.059287343722711E-14  -6.369953551733451E-14  -6.696547949253085E-14
  -7.039887191430523E-14  -7.400829804173421E-14  -7.780278330904399E-14
  -8.179181589383568E-14  -8.598537044240034E-14  -9.039393301146183E-14
  -9.502852728869822E-14  -9.990074215761955E-14  -1.050227606757232E-13
  -1.104073905383808E-13  -1.160680961046472E-13  -1.220190320650524E-13
  -1.282750788355795E-13  -1.348518797663238E-13  -1.417658802578683E-13
  -1.490343688832031E-13  -1.566755206179918E-13  -1.647084422872994E-13
  -1.731532203424168E-13  -1.820309710872357E-13  -1.913638934797929E-13
  -2.011753246409767E-13  -2.114897982092287E-13  -2.223331056871387E-13
  -2.337323609333251E-13  -2.457160679608874E-13  -2.583141922119249E-13
  -2.715582354863740E-13  -2.854813147125108E-13  -3.001182447560694E-13
  -3.155056254750791E-13  -3.316819332380488E-13  -3.486876171343817E-13
  -3.665652001175772E-13  -3.853593853341070E-13  -4.051171679038926E-13
  -4.258879524318230E-13  -4.477236765442019E-13  -4.706789407590058E-13
  -4.948111450146675E-13  -5.201806321988350E-13  -5.468508390359198E-13
  -5.748884547107866E-13  -6.043635876251980E-13  -6.353499407039559E-13
  -6.679249956891671E-13  -7.021702068833553E-13  -7.381712048259494E-13
  -7.760180104124093E-13  -8.158052599913526E-13  -8.576324420026180E-13
  -9.016041457478664E-13  -9.478303229158381E-13  -9.964265625161971E-13
  -1.047514379909342E-12  -1.101221520655051E-12  -1.157682279939538E-12
  -1.217037838379778E-12  -1.279436615044719E-12  -1.345034638576033E-12
  -1.413995937336531E-12  -1.486492949561602E-12  -1.562706954539387E-12
  -1.642828525897804E-12  -1.727058008131715E-12  -1.815606017562044E-12
  -1.908693968979131E-12  -2.006554629287440E-12  -2.109432699535857E-12
  -2.217585426788838E-12  -2.331283247368606E-12  -2.450810463076437E-12
  -2.576465952084186E-12  -2.708563916273437E-12  -2.847434666890936E-12
  -2.993425450484898E-12  -3.146901317187225E-12  -3.308246033512849E-12
  -3.477863041958516E-12  -3.656176469800364E-12  -3.843632189612862E-12
  -4.040698934160627E-12  -4.247869468451017E-12  -4.465661821877993E-12
  -4.694620583538100E-12  -4.935318263957484E-12  -5.188356726634624E-12
  -5.454368692978441E-12  -5.734019324404519E-12  -6.028007885545337E-12
  -6.337069492733337E-12  -6.661976952128414E-12  -7.003542692086150E-12
  -7.362620794598263E-12  -7.740109130884593E-12  -8.136951606476596E-12
  -8.554140521405603E-12  -8.992719051397402E-12  -9.453783856276938E-12
  -9.938487822104855E-12  -1.044804294390271E-11  -1.098372335617389E-11
  -1.154686851879834E-11  -1.213888656626643E-11  -1.276125782862618E-11
  -1.341553853294765E-11  -1.410336469455898E-11  -1.482645620778355E-11
  -1.558662114640668E-11  -1.638576028462352E-11  -1.722587184977298E-11
  -1.810905651873982E-11  -1.903752267051815E-11  -2.001359190806898E-11
  -2.103970486327753E-11  -2.211842729952540E-11  -2.325245652713402E-11
  -2.444462814772127E-11  -2.569792314433289E-11  -2.701547533507551E-11
  -2.840057920888848E-11  -2.985669816304379E-11  -3.138747316297148E-11
  -3.299673184606107E-11  -3.468849809219981E-11  -3.646700208497776E-11
  -3.833669088871257E-11  -4.030223956773996E-11  -4.236856287576960E-11
  -4.454082754453094E-11  -4.682446520243417E-11  -4.922518595554288E-11
  -5.174899266481434E-11  -5.440219595530192E-11  -5.719142999484287E-11
  -6.012366908168309E-11  -6.320624508250557E-11  -6.644686576446273E-11
  -6.985363406704202E-11  -7.343506836194524E-11  -7.720012375163495E-11
  -8.115821445979162E-11  -8.531923736966127E-11  -8.969359676913891E-11
  -9.429223036444859E-11  -9.912663662745829E-11  -1.042089035449920E-10
  -1.095517388420154E-10  -1.151685017542507E-10  -1.210732364296468E-10
  -1.272807070422109E-10  -1.338064347059783E-10  -1.406667362814040E-10
  -1.478787651711843E-10  -1.554605542074990E-10  -1.634310607378711E-10
  -1.718102140223683E-10  -1.806189650606163E-10  -1.898793389731875E-10
  -1.996144900683061E-10  -2.098487597315150E-10  -2.206077372830263E-10
  -2.319183239548688E-10  -2.438088001477597E-10  -2.563088961358267E-10
  -2.694498663959001E-10  -2.832645677471911E-10  -2.977875414966583E-10
  -3.130550997953984E-10  -3.291054164219157E-10  -3.459786222191692E-10
  -3.637169054239702E-10  -3.823646171394759E-10  -4.019683822144147E-10
  -4.225772158061819E-10  -4.442426459191207E-10  -4.670188422242863E-10
  -4.909627514826375E-10  -5.161342399101234E-10  -5.425962428404858E-10
  -5.704149220597954E-10  -5.996598312059676E-10  -6.304040896465993E-10
  -6.627245652696749E-10  -6.967020666439678E-10  -7.324215450293393E-10
  -7.699723067417892E-10  -8.094482364039478E-10  -8.509480316388982E-10
  -8.945754497938352E-10  -9.404395673100443E-10  -9.886550523873893E-10
  -1.039342451624597E-09  -1.092628491351591E-09  -1.148646394406849E-09
  -1.207536213151220E-09  -1.269445179550409E-09  -1.334528073200692E-09
  -1.402947608217484E-09  -1.474874839953362E-09  -1.550489592561631E-09
  -1.629980908473761E-09  -1.713547520913526E-09  -1.801398350628349E-09
  -1.893753028078814E-09  -1.990842442390741E-09  -2.092909318441294E-09
  -2.200208823520572E-09  -2.313009205084157E-09  -2.431592461189657E-09
  -2.556255045291782E-09  -2.687308607156511E-09  -2.825080771744784E-09
  -2.969915958011115E-09  -3.122176239282727E-09  -3.282242251567276E-09
  -3.450514134785642E-09  -3.627412545580082E-09  -3.813379701336487E-09
  -4.008880486103154E-09  -4.214403614981301E-09  -4.430462846701521E-09
  -4.657598284049971E-09  -4.896377704019434E-09  -5.147397988183946E-09
  -5.411286620257998E-09  -5.688703229390187E-09  -5.980341271026394E-09
  -6.286929733878151E-09  -6.609234970761230E-09  -6.948062616853044E-09
  -7.304259597390097E-09  -7.678716240361526E-09  -8.072368515619552E-09
  -8.486200350949665E-09  -8.921246111992483E-09  -9.378593168025856E-09
  -9.859384630758740E-09  -1.036482217882425E-08  -1.089616908610931E-08
  -1.145475336499106E-08  -1.204197109112845E-08  -1.265928988069225E-08
  -1.330825256400733E-08  -1.399048103261412E-08  -1.470768029963956E-08
  -1.546164273728382E-08  -1.625425260302206E-08  -1.708749065149440E-08
  -1.796343920852078E-08  -1.888428724670572E-08  -1.985233591373695E-08
  -2.087000431649670E-08  -2.193983549431260E-08  -2.306450273997160E-08
  -2.424681638676053E-08  -2.548973073973223E-08  -2.679635146891663E-08
  -2.816994339711428E-08  -2.961393857558422E-08  -3.113194494633708E-08
  -3.272775524948457E-08  -3.440535656728356E-08  -3.616894023657975E-08
  -3.802291232626283E-08  -3.997190460636974E-08  -4.202078619314377E-08
  -4.417467553142856E-08  -4.643895333716210E-08  -4.881927595328885E-08
  -5.132158942939133E-08  -5.395214440698935E-08  -5.671751170152378E-08
  -5.962459871154243E-08  -6.268066654645908E-08  -6.589334832491682E-08
  -6.927066800918456E-08  -7.282106057191197E-08  -7.655339296561656E-08
  -8.047698619070482E-08  -8.460163863744128E-08  -8.893765046232363E-08
  -9.349584923569221E-08  -9.828761697915173E-08  -1.033249185421254E-07
  -1.086203313970601E-07  -1.141870769687326E-07  -1.200390536610587E-07
  -1.261908714042353E-07  -1.326578880914388E-07  -1.394562478671633E-07
  -1.466029212849233E-07  -1.541157476643893E-07  -1.620134794483878E-07
  -1.703158288970974E-07  -1.790435173111974E-07  -1.882183264176156E-07
  -1.978631527767018E-07  -2.080020646869635E-07  -2.186603621544556E-07
  -2.298646397644281E-07  -2.416428529943662E-07  -2.540243876482712E-07
  -2.670401330594939E-07  -2.807225588709768E-07  -2.951057958449603E-07
  -3.102257206994864E-07  -3.261200453592165E-07  -3.428284106505228E-07
  -3.603924849785286E-07  -3.788560677078728E-07  -3.982651981815110E-07
  -4.186682700061004E-07  -4.401161513325282E-07  -4.626623112067185E-07
  -4.863629523062558E-07  -5.112771505772522E-07  -5.374670018330046E-07
  -5.649977759484323E-07  -5.939380787625721E-07  -6.243600224101843E-07
  -6.563394040763842E-07  -6.899558941581673E-07  -7.252932336868306E-07
  -7.624394420211112E-07  -8.014870349425151E-07  -8.425332540778915E-07
  -8.856803075999818E-07  -9.310356236061028E-07  -9.787121159534555E-07
  -1.028828463972627E-06  -1.081509406183755E-06  -1.136886048833776E-06
  -1.195096190345366E-06  -1.256284662191732E-06  -1.320603686747860E-06
  -1.388213253796310E-06  -1.459281515686872E-06  -1.533985202794121E-06
  -1.612510060015321E-06  -1.695051305119975E-06  -1.781814110771145E-06
  -1.873014110557398E-06  -1.968877930793518E-06  -2.069643749351261E-06
  -2.175561882464138E-06  -2.286895401530067E-06  -2.403920780946686E-06
  -2.526928578615607E-06  -2.656224150986635E-06  -2.792128404055366E-06
  -2.934978582384406E-06  -3.085129097953025E-06  -3.242952400672522E-06
  -3.408839892872528E-06  -3.583202889899965E-06  -3.766473629140092E-06
  -3.959106329646839E-06  -4.161578305395138E-06  -4.374391134174544E-06
  -4.598071885590645E-06  -4.833174410604686E-06  -5.080280695777438E-06
  -5.340002285688111E-06  -5.612981776462826E-06  -5.899894384422394E-06
  -6.201449593221056E-06  -6.518392883445325E-06  -6.851507548893851E-06
  -7.201616603584348E-06  -7.569584784112857E-06  -7.956320652134080E-06
  -8.362778801636701E-06  -8.789962176436544E-06  -9.238924503217078E-06
  -9.710772845552742E-06  -1.020667028528582E-05  -1.072783873727537E-05
  -1.127556190357890E-05  -1.185118837507874E-05  -1.245613488612732E-05
  -1.309188973117031E-05  -1.376001635022831E-05  -1.446215709189990E-05
  -1.520003716226103E-05  -1.597546876879488E-05  -1.679035546886786E-05
  -1.764669673229105E-05  -1.854659272854440E-05  -1.949224934963344E-05
  -2.048598347907489E-05  -2.153022852011551E-05  -2.262754019429849E-05
  -2.378060262400504E-05  -2.499223471232073E-05  -2.626539683438411E-05
  -2.760319785478679E-05  -2.900890248673505E-05  -3.048593900910118E-05
  -3.203790735760294E-05  -3.366858760893353E-05  -3.538194887484016E-05
  -3.718215862613282E-05  -3.907359246677511E-05  -4.106084437836115E-05
  -4.314873745707930E-05  -4.534233516629991E-05  -4.764695312776356E-05
  -5.006817147666176E-05  -5.261184780634558E-05  -5.528413072921328E-05
  -5.809147408229031E-05  -6.104065180610651E-05  -6.413877352780869E-05
  -6.739330087960397E-05  -7.081206458591334E-05  -7.440328235291488E-05
  -7.817557759685228E-05  -8.213799904716810E-05  -8.630004126357121E-05
  -9.067166610694856E-05  -9.526332520521635E-05  -1.000859834573932E-04
  -1.051511436205973E-04  -1.104708720261749E-04  -1.160578254728758E-04
  -1.219252793470387E-04  -1.280871570208772E-04  -1.345580605824981E-04
  -1.413533029525474E-04  -1.484889414444284E-04  -1.559818128267020E-04
  -1.638495699490698E-04  -1.721107199933178E-04  -1.807846644151351E-04
  -1.898917406420473E-04  -1.994532655966387E-04  -2.094915811148643E-04
  -2.200301013320317E-04  -2.310933621101181E-04  -2.427070725824737E-04
  -2.548981688939492E-04  -2.676948702152596E-04  -2.811267371132204E-04
  -2.952247323595763E-04  -3.100212842620714E-04  -3.255503526042364E-04
  -3.418474972799247E-04  -3.589499497113671E-04  -3.768966871384771E-04
  -3.957285098705249E-04  -4.154881215887354E-04  -4.362202127914373E-04
  -4.579715474709444E-04  -4.807910531131405E-04  -5.047299141082044E-04
  -5.298416686608941E-04  -5.561823092871644E-04  -5.838103869812829E-04
  -6.127871191357191E-04  -6.431765012926187E-04  -6.750454228018310E-04
  -7.084637864565233E-04  -7.435046321711087E-04  -7.802442647614883E-04
  -8.187623858796210E-04  -8.591422301466433E-04  -9.014707055203762E-04
  -9.458385379217616E-04  -9.923404201344433E-04  -1.041075164977745E-03
  -1.092145862740054E-03  -1.145660042843068E-03  -1.201729839689760E-03
  -1.260472162629554E-03  -1.322008869953400E-03  -1.386466946806261E-03
  -1.453978686880803E-03  -1.524681877725596E-03  -1.598719989472152E-03
  -1.676242366750086E-03  -1.757404423523499E-03  -1.842367840542048E-03
  -1.931300765056419E-03  -2.024378012401695E-03  -2.121781269000785E-03
  -2.223699296286245E-03  -2.330328134979157E-03  -2.441871309100870E-03
  -2.558540029024755E-03  -2.680553392802400E-03  -2.808138584919823E-03
  -2.941531071555576E-03  -3.080974791322767E-03  -3.226722340380983E-03
  -3.379035150702814E-03  -3.538183660169568E-03  -3.704447473057021E-03
  -3.878115509348016E-03  -4.059486141179815E-03  -4.248867314596543E-03
  -4.446576654631844E-03  -4.652941551594819E-03  -4.868299226270071E-03
  -5.092996771575481E-03  -5.327391168043011E-03  -5.571849270302912E-03
  -5.826747761559125E-03  -6.092473072840733E-03  -6.369421263606906E-03
  -6.657997860065143E-03  -6.958617647338298E-03  -7.271704411386934E-03
  -7.597690626354485E-03  -7.937017082762707E-03  -8.290132451737854E-03
  -8.657492780196275E-03  -9.039560911669318E-03  -9.436805827190947E-03
  -9.849701900421667E-03  -1.027872806093341E-02  -1.072436685933338E-02
  -1.118710342767259E-02  -1.166742432835376E-02  -1.216581628454459E-02
  -1.268276478490517E-02  -1.321875255526255E-02  -1.377425788971939E-02
  -1.434975283356089E-02  -1.494570121024334E-02  -1.556255648470562E-02
  -1.620075945524775E-02  -1.686073576628560E-02  -1.754289323440996E-02
  -1.824761898037349E-02  -1.897527635990306E-02  -1.972620168659380E-02
  -2.050070074060727E-02  -2.129904505746310E-02  -2.212146799190950E-02
  -2.296816055268633E-02  -2.383926700496423E-02  -2.473488023838550E-02
  -2.565503689993470E-02  -2.659971229237058E-02  -2.756881504065513E-02
  -2.856218153073301E-02  -2.957957012718178E-02  -3.062065517865555E-02
  -3.168502082272515E-02  -3.277215460467735E-02  -3.388144092808429E-02
  -3.501215435852703E-02  -3.616345280573553E-02  -3.733437061363237E-02
  -3.852381159232846E-02  -3.973054203102185E-02  -4.095318373601968E-02
  -4.219020714370071E-02  -4.343992456419455E-02  -4.470048361783914E-02
  -4.596986093307166E-02  -4.724585618131111E-02  -4.852608653153435E-02
  -4.980798161462445E-02  -5.108877909511078E-02  -5.236552095555755E-02
  -5.363505060654136E-02  -5.489401094276276E-02  -5.613884347329205E-02
  -5.736578866111496E-02  -5.857088761387625E-02  -5.974998527388646E-02
  -6.089873526084474E-02  -6.201260652517158E-02  -6.308689197309902E-02
  -6.411671922648833E-02  -6.509706368048318E-02  -6.602276402024768E-02
  -6.688854035388893E-02  -6.768901511187939E-02  -6.841873685351478E-02
  -6.907220710781706E-02  -6.964391035940520E-02  -7.012834726884261E-02
  -7.052007119141211E-02  -7.081372802777786E-02  -7.100409940419504E-02
  -7.108614913844720E-02  -7.105507290021823E-02  -7.090635092085625E-02
  -7.063580354725155E-02  -7.023964936770313E-02  -6.971456556416780E-02
  -6.905775006527119E-02  -6.826698498817303E-02  -6.734070076526261E-02
  -6.627804025434690E-02  -6.507892202940095E-02  -6.374410194421010E-02
  -6.227523195485864E-02  -6.067491508078832E-02  -5.894675528028249E-02
  -5.709540091731814E-02  -5.512658040577853E-02  -5.304712853755551E-02
  -5.086500193700606E-02  -4.858928204000953E-02  -4.623016397640135E-02
  -4.379892974512620E-02  -4.130790411785736E-02  -3.877039179507193E-02
  -3.620059447501110E-02  -3.361350668702851E-02  -3.102478949289326E-02
  -2.845062147892339E-02  -2.590752685400793E-02  -2.341218093864190E-02
  -2.098119388191971E-02  -1.863087407936782E-02  -1.637697348512050E-02
  -1.423441781528732E-02  -1.221702552066525E-02  -1.033722035789743E-02
  -8.605743396347780E-03  -7.031371346309601E-03  -5.620649160229620E-03
  -4.377645914168775E-03  -3.303743987062974E-03  -2.397472478996069E-03
  -1.654396598193585E-03  -1.067075344118592E-03  -6.251001584224800E-04
  -3.152272376932396E-04  -1.216158276584715E-04  -2.618396950127347E-05
  -9.091764946601855E-06  -4.936018816437474E-05  -1.256307236473936E-04
  -2.170675824655979E-04  -3.043998900769326E-04  -3.710960112971173E-04
  -4.046560714376368E-04  -4.000470947060769E-04  -3.648578118731274E-04
  -3.094311287412943E-04  -2.437058941517772E-04  -1.766214684376516E-04
  -1.155641186274398E-04  -6.588741020691069E-05  -3.053854076290330E-05
  -9.820655133357947E-06  -1.317383556992402E-06   0.000000000000000E+00
   0.000000000000000E+00   0.000000000000000E+00   0.000000000000000E+00
   0.000000000000000E+00   0.000000000000000E+00   0.000000000000000E+00
   0.000000000000000E+00   0.000000000000000E+00   0.000000000000000E+00
   0.000000000000000E+00   0.000000000000000E+00   0.000000000000000E+00
   0.000000000000000E+00   0.000000000000000E+00   0.000000000000000E+00
   0.000000000000000E+00   0.000000000000000E+00   0.000000000000000E+00
   0.000000000000000E+00   0.000000000000000E+00   0.000000000000000E+00
   0.000000000000000E+00   0.000000000000000E+00   0.000000000000000E+00
   0.000000000000000E+00   0.000000000000000E+00   0.000000000000000E+00
   0.000000000000000E+00   0.000000000000000E+00   0.000000000000000E+00
   0.000000000000000E+00   0.000000000000000E+00   0.000000000000000E+00
   0.000000000000000E+00   0.000000000000000E+00   0.000000000000000E+00
   0.000000000000000E+00   0.000000000000000E+00   0.000000000000000E+00
   0.000000000000000E+00   0.000000000000000E+00   0.000000000000000E+00
   0.000000000000000E+00   0.000000000000000E+00   0.000000000000000E+00
   0.000000000000000E+00   0.000000000000000E+00   0.000000000000000E+00
   0.000000000000000E+00   0.000000000000000E+00   0.000000000000000E+00
   0.000000000000000E+00   0.000000000000000E+00   0.000000000000000E+00
   0.000000000000000E+00   0.000000000000000E+00   0.000000000000000E+00
   0.000000000000000E+00   0.000000000000000E+00   0.000000000000000E+00
   0.000000000000000E+00   0.000000000000000E+00   0.000000000000000E+00
   0.000000000000000E+00   0.000000000000000E+00   0.000000000000000E+00
   0.000000000000000E+00   0.000000000000000E+00   0.000000000000000E+00
   0.000000000000000E+00   0.000000000000000E+00   0.000000000000000E+00
   0.000000000000000E+00   0.000000000000000E+00   0.000000000000000E+00
   0.000000000000000E+00   0.000000000000000E+00   0.000000000000000E+00
   0.000000000000000E+00   0.000000000000000E+00   0.000000000000000E+00
   0.000000000000000E+00   0.000000000000000E+00   0.000000000000000E+00
   0.000000000000000E+00   0.000000000000000E+00   0.000000000000000E+00
   0.000000000000000E+00   0.000000000000000E+00   0.000000000000000E+00
   0.000000000000000E+00   0.000000000000000E+00   0.000000000000000E+00
   0.000000000000000E+00   0.000000000000000E+00   0.000000000000000E+00
   0.000000000000000E+00   0.000000000000000E+00   0.000000000000000E+00
   0.000000000000000E+00   0.000000000000000E+00   0.000000000000000E+00
   0.000000000000000E+00   0.000000000000000E+00   0.000000000000000E+00
   0.000000000000000E+00   0.000000000000000E+00   0.000000000000000E+00
   0.000000000000000E+00   0.000000000000000E+00   0.000000000000000E+00
   0.000000000000000E+00   0.000000000000000E+00   0.000000000000000E+00
   0.000000000000000E+00   0.000000000000000E+00   0.000000000000000E+00
   0.000000000000000E+00   0.000000000000000E+00   0.000000000000000E+00
   0.000000000000000E+00   0.000000000000000E+00   0.000000000000000E+00
   0.000000000000000E+00   0.000000000000000E+00   0.000000000000000E+00
   0.000000000000000E+00   0.000000000000000E+00   0.000000000000000E+00
   0.000000000000000E+00   0.000000000000000E+00   0.000000000000000E+00
   0.000000000000000E+00   0.000000000000000E+00   0.000000000000000E+00
   0.000000000000000E+00   0.000000000000000E+00   0.000000000000000E+00
   0.000000000000000E+00   0.000000000000000E+00   0.000000000000000E+00
   0.000000000000000E+00   0.000000000000000E+00   0.000000000000000E+00
   0.000000000000000E+00   0.000000000000000E+00   0.000000000000000E+00
   0.000000000000000E+00   0.000000000000000E+00   0.000000000000000E+00
   0.000000000000000E+00   0.000000000000000E+00   0.000000000000000E+00
   0.000000000000000E+00   0.000000000000000E+00   0.000000000000000E+00
   0.000000000000000E+00   0.000000000000000E+00   0.000000000000000E+00
   0.000000000000000E+00   0.000000000000000E+00   0.000000000000000E+00
   0.000000000000000E+00   0.000000000000000E+00   0.000000000000000E+00
   0.000000000000000E+00   0.000000000000000E+00   0.000000000000000E+00
   0.000000000000000E+00   0.000000000000000E+00   0.000000000000000E+00
   0.000000000000000E+00   0.000000000000000E+00   0.000000000000000E+00
   0.000000000000000E+00   0.000000000000000E+00   0.000000000000000E+00
   0.000000000000000E+00   0.000000000000000E+00   0.000000000000000E+00
   0.000000000000000E+00   0.000000000000000E+00   0.000000000000000E+00
   0.000000000000000E+00   0.000000000000000E+00   0.000000000000000E+00
   0.000000000000000E+00   0.000000000000000E+00   0.000000000000000E+00
   0.000000000000000E+00   0.000000000000000E+00   0.000000000000000E+00
   0.000000000000000E+00   0.000000000000000E+00   0.000000000000000E+00
   0.000000000000000E+00   0.000000000000000E+00   0.000000000000000E+00
   0.000000000000000E+00   0.000000000000000E+00   0.000000000000000E+00
   0.000000000000000E+00   0.000000000000000E+00   0.000000000000000E+00
   0.000000000000000E+00   0.000000000000000E+00   0.000000000000000E+00
   0.000000000000000E+00   0.000000000000000E+00   0.000000000000000E+00
   0.000000000000000E+00   0.000000000000000E+00   0.000000000000000E+00
   0.000000000000000E+00   0.000000000000000E+00   0.000000000000000E+00
   0.000000000000000E+00   0.000000000000000E+00   0.000000000000000E+00
   0.000000000000000E+00   0.000000000000000E+00   0.000000000000000E+00
   0.000000000000000E+00   0.000000000000000E+00   0.000000000000000E+00
   0.000000000000000E+00   0.000000000000000E+00   0.000000000000000E+00
   0.000000000000000E+00   0.000000000000000E+00   0.000000000000000E+00
   0.000000000000000E+00   0.000000000000000E+00   0.000000000000000E+00
   0.000000000000000E+00   0.000000000000000E+00   0.000000000000000E+00
   0.000000000000000E+00   0.000000000000000E+00   0.000000000000000E+00
   0.000000000000000E+00   0.000000000000000E+00   0.000000000000000E+00
   0.000000000000000E+00   0.000000000000000E+00   0.000000000000000E+00
   0.000000000000000E+00   0.000000000000000E+00   0.000000000000000E+00
   0.000000000000000E+00   0.000000000000000E+00   0.000000000000000E+00
   0.000000000000000E+00   0.000000000000000E+00   0.000000000000000E+00
   0.000000000000000E+00   0.000000000000000E+00   0.000000000000000E+00
   0.000000000000000E+00   0.000000000000000E+00   0.000000000000000E+00
   0.000000000000000E+00   0.000000000000000E+00   0.000000000000000E+00
   0.000000000000000E+00   0.000000000000000E+00   0.000000000000000E+00
   0.000000000000000E+00   0.000000000000000E+00   0.000000000000000E+00
   0.000000000000000E+00   0.000000000000000E+00   0.000000000000000E+00
   0.000000000000000E+00   0.000000000000000E+00   0.000000000000000E+00
   0.000000000000000E+00   0.000000000000000E+00   0.000000000000000E+00
   0.000000000000000E+00   0.000000000000000E+00   0.000000000000000E+00
   0.000000000000000E+00   0.000000000000000E+00   0.000000000000000E+00
   0.000000000000000E+00   0.000000000000000E+00   0.000000000000000E+00
   0.000000000000000E+00   0.000000000000000E+00   0.000000000000000E+00
   0.000000000000000E+00   0.000000000000000E+00   0.000000000000000E+00
   0.000000000000000E+00   0.000000000000000E+00   0.000000000000000E+00
   0.000000000000000E+00   0.000000000000000E+00   0.000000000000000E+00
   0.000000000000000E+00   0.000000000000000E+00   0.000000000000000E+00
   0.000000000000000E+00   0.000000000000000E+00   0.000000000000000E+00
   0.000000000000000E+00   0.000000000000000E+00   0.000000000000000E+00
   0.000000000000000E+00
      </PP_QIJL.4.4.2>
    </PP_AUGMENTATION>
  </PP_NONLOCAL>
  <PP_PSWFC>
    <PP_CHI.1 size="1135" index="1" label="3S" l="0" occupation="2.0000000000000000" n="1" cutoff_radius="2.0000000000000000" ultrasoft_cutoff_radius="2.1000000000000001">
   2.965919201669018E-05   3.003225872628097E-05   3.041001803740261E-05
   3.079252897571619E-05   3.117985130933418E-05   3.157204555815936E-05
   3.196917300334120E-05   3.237129569685118E-05   3.277847647117837E-05
   3.319077894914747E-05   3.360826755385960E-05   3.403100751875890E-05
   3.445906489782509E-05   3.489250657589475E-05   3.533140027911220E-05
   3.577581458551170E-05   3.622581893573301E-05   3.668148364387167E-05
   3.714287990846558E-05   3.761007982362015E-05   3.808315639027286E-05
   3.856218352760003E-05   3.904723608456669E-05   3.953838985162210E-05
   4.003572157254192E-05   4.053930895641969E-05   4.104923068980904E-05
   4.156556644901860E-05   4.208839691256158E-05   4.261780377376205E-05
   4.315386975351956E-05   4.369667861323446E-05   4.424631516789587E-05
   4.480286529933411E-05   4.536641596964006E-05   4.593705523475295E-05
   4.651487225821944E-05   4.709995732512551E-05   4.769240185620374E-05
   4.829229842211809E-05   4.889974075792801E-05   4.951482377773495E-05
   5.013764358951272E-05   5.076829751012468E-05   5.140688408052979E-05
   5.205350308117947E-05   5.270825554760891E-05   5.337124378622383E-05
   5.404257139028612E-05   5.472234325610059E-05   5.541066559940510E-05
   5.610764597196706E-05   5.681339327838866E-05   5.752801779312321E-05
   5.825163117770614E-05   5.898434649820203E-05   5.972627824287136E-05
   6.047754234005988E-05   6.123825617631229E-05   6.200853861471449E-05
   6.278851001346577E-05   6.357829224468533E-05   6.437800871345494E-05
   6.518778437710121E-05   6.600774576472057E-05   6.683802099694953E-05
   6.767873980598385E-05   6.853003355584943E-05   6.939203526292836E-05
   7.026487961674286E-05   7.114870300100080E-05   7.204364351490594E-05
   7.294984099473626E-05   7.386743703569359E-05   7.479657501402841E-05
   7.573740010944227E-05   7.669005932777258E-05   7.765470152396281E-05
   7.863147742532100E-05   7.962053965507166E-05   8.062204275620292E-05
   8.163614321561468E-05   8.266299948856963E-05   8.370277202345242E-05
   8.475562328684021E-05   8.582171778888798E-05   8.690122210903410E-05
   8.799430492202800E-05   8.910113702428660E-05   9.022189136058144E-05
   9.135674305106154E-05   9.250586941861627E-05   9.366945001658244E-05
   9.484766665680004E-05   9.604070343802075E-05   9.724874677467326E-05
   9.847198542599148E-05   9.971061052550826E-05   1.009648156109204E-04
   1.022347966543296E-04   1.035207520928631E-04   1.048228828596802E-04
   1.061413924153683E-04   1.074764867797340E-04   1.088283745639945E-04
   1.101972670033732E-04   1.115833779901057E-04   1.129869241068607E-04
   1.144081246605820E-04   1.158472017167550E-04   1.173043801341058E-04
   1.187798875997349E-04   1.202739546646942E-04   1.217868147800114E-04
   1.233187043331667E-04   1.248698626850289E-04   1.264405322072566E-04
   1.280309583201682E-04   1.296413895310905E-04   1.312720774731880E-04
   1.329232769447807E-04   1.345952459491574E-04   1.362882457348893E-04
   1.380025408366503E-04   1.397383991165513E-04   1.414960918059942E-04
   1.432758935480521E-04   1.450780824403835E-04   1.469029400786849E-04
   1.487507516006914E-04   1.506218057307295E-04   1.525163948248312E-04
   1.544348149164153E-04   1.563773657625428E-04   1.583443508907553E-04
   1.603360776465015E-04   1.623528572411602E-04   1.643950048006679E-04
   1.664628394147584E-04   1.685566841868210E-04   1.706768662843858E-04
   1.728237169902445E-04   1.749975717542141E-04   1.771987702455517E-04
   1.794276564060285E-04   1.816845785036716E-04   1.839698891871807E-04
   1.862839455410321E-04   1.886271091412716E-04   1.909997461120138E-04
   1.934022271826481E-04   1.958349277457666E-04   1.982982279158203E-04
   2.007925125885120E-04   2.033181715009385E-04   2.058755992924860E-04
   2.084651955664951E-04   2.110873649526985E-04   2.137425171704455E-04
   2.164310670927227E-04   2.191534348109770E-04   2.219100457007569E-04
   2.247013304881786E-04   2.275277253172264E-04   2.303896718179044E-04
   2.332876171752373E-04   2.362220141991491E-04   2.391933213952120E-04
   2.422020030362906E-04   2.452485292350858E-04   2.483333760175892E-04
   2.514570253974659E-04   2.546199654513679E-04   2.578226903951980E-04
   2.610657006613332E-04   2.643495029768154E-04   2.676746104425333E-04
   2.710415426133910E-04   2.744508255794922E-04   2.779029920483432E-04
   2.813985814280872E-04   2.849381399117917E-04   2.885222205627892E-04
   2.921513834010968E-04   2.958261954909193E-04   2.995472310292540E-04
   3.033150714356130E-04   3.071303054428680E-04   3.109935291892429E-04
   3.149053463114632E-04   3.188663680390713E-04   3.228772132899385E-04
   3.269385087669672E-04   3.310508890560178E-04   3.352149967250631E-04
   3.394314824245905E-04   3.437010049892704E-04   3.480242315408974E-04
   3.524018375926317E-04   3.568345071545511E-04   3.613229328405239E-04
   3.658678159764378E-04   3.704698667097801E-04   3.751298041206010E-04
   3.798483563338733E-04   3.846262606332600E-04   3.894642635763214E-04
   3.943631211111631E-04   3.993235986945546E-04   4.043464714115383E-04
   4.094325240965320E-04   4.145825514559686E-04   4.197973581924656E-04
   4.250777591305637E-04   4.304245793440472E-04   4.358386542848599E-04
   4.413208299136526E-04   4.468719628319600E-04   4.524929204160514E-04
   4.581845809524609E-04   4.639478337752184E-04   4.697835794048160E-04
   4.756927296889132E-04   4.816762079448139E-04   4.877349491037434E-04
   4.938698998569269E-04   5.000820188035209E-04   5.063722766003888E-04
   5.127416561137738E-04   5.191911525728757E-04   5.257217737253527E-04
   5.323345399947934E-04   5.390304846401527E-04   5.458106539172067E-04
   5.526761072420347E-04   5.596279173565486E-04   5.666671704961226E-04
   5.737949665593127E-04   5.810124192797230E-04   5.883206564000318E-04
   5.957208198482002E-04   6.032140659159064E-04   6.108015654392192E-04
   6.184845039815416E-04   6.262640820188654E-04   6.341415151273441E-04
   6.421180341732348E-04   6.501948855052236E-04   6.583733311491714E-04
   6.666546490053125E-04   6.750401330479289E-04   6.835310935275383E-04
   6.921288571756267E-04   7.008347674119555E-04   7.096501845544751E-04
   7.185764860318803E-04   7.276150665988404E-04   7.367673385539316E-04
   7.460347319603154E-04   7.554186948691942E-04   7.649206935460720E-04
   7.745422126998689E-04   7.842847557149079E-04   7.941498448858284E-04
   8.041390216554516E-04   8.142538468556346E-04   8.244959009511612E-04
   8.348667842866930E-04   8.453681173368323E-04   8.560015409593283E-04
   8.667687166514689E-04   8.776713268097005E-04   8.887110749925050E-04
   8.998896861865931E-04   9.112089070764432E-04   9.226705063172223E-04
   9.342762748111574E-04   9.460280259873646E-04   9.579275960852137E-04
   9.699768444412465E-04   9.821776537797075E-04   9.945319305067334E-04
   1.007041605008240E-03   1.019708631951551E-03   1.032534990590834E-03
   1.045522685076359E-03   1.058673744767669E-03   1.071990224550676E-03
   1.085474205158754E-03   1.099127793497855E-03   1.112953122975741E-03
   1.126952353835333E-03   1.141127673492269E-03   1.155481296876700E-03
   1.170015466779391E-03   1.184732454202162E-03   1.199634558712761E-03
   1.214724108804185E-03   1.230003462258515E-03   1.245475006515353E-03
   1.261141159044861E-03   1.277004367725525E-03   1.293067111226646E-03
   1.309331899395653E-03   1.325801273650290E-03   1.342477807375730E-03
   1.359364106326696E-03   1.376462809034624E-03   1.393776587219958E-03
   1.411308146209642E-03   1.429060225359837E-03   1.447035598483982E-03
   1.465237074286222E-03   1.483667496800299E-03   1.502329745833965E-03
   1.521226737418972E-03   1.540361424266737E-03   1.559736796229737E-03
   1.579355880768702E-03   1.599221743425695E-03   1.619337488303126E-03
   1.639706258548812E-03   1.660331236847134E-03   1.681215645916364E-03
   1.702362749012255E-03   1.723775850437969E-03   1.745458296060413E-03
   1.767413473833070E-03   1.789644814325424E-03   1.812155791259026E-03
   1.834949922050313E-03   1.858030768360242E-03   1.881401936650877E-03
   1.905067078748933E-03   1.929029892416428E-03   1.953294121928532E-03
   1.977863558658653E-03   2.002742041670905E-03   2.027933458320032E-03
   2.053441744858858E-03   2.079270887053422E-03   2.105424920805793E-03
   2.131907932784770E-03   2.158724061064497E-03   2.185877495771112E-03
   2.213372479737541E-03   2.241213309166520E-03   2.269404334301965E-03
   2.297949960108787E-03   2.326854646961255E-03   2.356122911340043E-03
   2.385759326538014E-03   2.415768523374902E-03   2.446155190920991E-03
   2.476924077229894E-03   2.508079990080543E-03   2.539627797728524E-03
   2.571572429666882E-03   2.603918877396469E-03   2.636672195205988E-03
   2.669837500961893E-03   2.703419976908166E-03   2.737424870476211E-03
   2.771857495104915E-03   2.806723231071011E-03   2.842027526329953E-03
   2.877775897367287E-03   2.913973930060798E-03   2.950627280553487E-03
   2.987741676137519E-03   3.025322916149333E-03   3.063376872875969E-03
   3.101909492472834E-03   3.140926795893008E-03   3.180434879828246E-03
   3.220439917661833E-03   3.260948160433378E-03   3.301965937815846E-03
   3.343499659104798E-03   3.385555814220119E-03   3.428140974720358E-03
   3.471261794829828E-03   3.514925012478620E-03   3.559137450355733E-03
   3.603906016975440E-03   3.649237707757071E-03   3.695139606118433E-03
   3.741618884582909E-03   3.788682805900580E-03   3.836338724183408E-03
   3.884594086054716E-03   3.933456431813163E-03   3.982933396611333E-03
   4.033032711649190E-03   4.083762205382545E-03   4.135129804746741E-03
   4.187143536395758E-03   4.239811527956868E-03   4.293142009301155E-03
   4.347143313829979E-03   4.401823879777660E-03   4.457192251530577E-03
   4.513257080962828E-03   4.570027128788750E-03   4.627511265932469E-03
   4.685718474914672E-03   4.744657851256886E-03   4.804338604903386E-03
   4.864770061661030E-03   4.925961664657242E-03   4.987922975816354E-03
   5.050663677354537E-03   5.114193573293540E-03   5.178522590993521E-03
   5.243660782705183E-03   5.309618327141464E-03   5.376405531069008E-03
   5.444032830919693E-03   5.512510794422455E-03   5.581850122255690E-03
   5.652061649720447E-03   5.723156348434739E-03   5.795145328049148E-03
   5.868039837984083E-03   5.941851269188912E-03   6.016591155923310E-03
   6.092271177560986E-03   6.168903160416172E-03   6.246499079593151E-03
   6.325071060859049E-03   6.404631382540272E-03   6.485192477442847E-03
   6.566766934796940E-03   6.649367502225911E-03   6.733007087740183E-03
   6.817698761756260E-03   6.903455759141187E-03   6.990291481282789E-03
   7.078219498186049E-03   7.167253550595875E-03   7.257407552146678E-03
   7.348695591539030E-03   7.441131934743790E-03   7.534731027234036E-03
   7.629507496245153E-03   7.725476153063414E-03   7.822651995343481E-03
   7.921050209455121E-03   8.020686172859479E-03   8.121575456515467E-03
   8.223733827316362E-03   8.327177250557351E-03   8.431921892434033E-03
   8.537984122572605E-03   8.645380516591883E-03   8.754127858697756E-03
   8.864243144310391E-03   8.975743582724531E-03   9.088646599803497E-03
   9.202969840707198E-03   9.318731172654514E-03   9.435948687720725E-03
   9.554640705670147E-03   9.674825776824665E-03   9.796522684968492E-03
   9.919750450289561E-03   1.004452833235826E-02   1.017087583314366E-02
   1.029881270006791E-02   1.042835892909948E-02   1.055953476788521E-02
   1.069236071892213E-02   1.082685754276945E-02   1.096304626130105E-02
   1.110094816099929E-02   1.124058479629038E-02   1.138197799292208E-02
   1.152514985138404E-02   1.167012275037157E-02   1.181691935029315E-02
   1.196556259682253E-02   1.211607572449567E-02   1.226848226035336E-02
   1.242280602762994E-02   1.257907114948881E-02   1.273730205280535E-02
   1.289752347199770E-02   1.305976045290617E-02   1.322403835672193E-02
   1.339038286396542E-02   1.355881997851532E-02   1.372937603168875E-02
   1.390207768637302E-02   1.407695194121015E-02   1.425402613483426E-02
   1.443332795016309E-02   1.461488541874377E-02   1.479872692515400E-02
   1.498488121145916E-02   1.517337738172606E-02   1.536424490659414E-02
   1.555751362790486E-02   1.575321376338990E-02   1.595137591141919E-02
   1.615203105580933E-02   1.635521057069322E-02   1.656094622545190E-02
   1.676927018970901E-02   1.698021503838914E-02   1.719381375684062E-02
   1.741009974602357E-02   1.762910682776440E-02   1.785086925007717E-02
   1.807542169255298E-02   1.830279927181820E-02   1.853303754706248E-02
   1.876617252563755E-02   1.900224066872738E-02   1.924127889709102E-02
   1.948332459687900E-02   1.972841562552412E-02   1.997659031770776E-02
   2.022788749140255E-02   2.048234645399263E-02   2.074000700847238E-02
   2.100090945972454E-02   2.126509462087926E-02   2.153260381975438E-02
   2.180347890537883E-02   2.207776225459969E-02   2.235549677877429E-02
   2.263672593054848E-02   2.292149371072199E-02   2.320984467520239E-02
   2.350182394204861E-02   2.379747719860516E-02   2.409685070872869E-02
   2.439999132010744E-02   2.470694647167545E-02   2.501776420112266E-02
   2.533249315250179E-02   2.565118258393397E-02   2.597388237541388E-02
   2.630064303671609E-02   2.663151571540388E-02   2.696655220494169E-02
   2.730580495291320E-02   2.764932706934580E-02   2.799717233514340E-02
   2.834939521062880E-02   2.870605084419711E-02   2.906719508108192E-02
   2.943288447223562E-02   2.980317628332545E-02   3.017812850384681E-02
   3.055779985635569E-02   3.094224980582181E-02   3.133153856910340E-02
   3.172572712454656E-02   3.212487722170983E-02   3.252905139121653E-02
   3.293831295473580E-02   3.335272603509495E-02   3.377235556652403E-02
   3.419726730503563E-02   3.462752783894055E-02   3.506320459950232E-02
   3.550436587173118E-02   3.595108080532124E-02   3.640341942573096E-02
   3.686145264541034E-02   3.732525227517616E-02   3.779489103573748E-02
   3.827044256937317E-02   3.875198145176481E-02   3.923958320398519E-02
   3.973332430464648E-02   4.023328220220869E-02   4.073953532745195E-02
   4.125216310611407E-02   4.177124597169585E-02   4.229686537843706E-02
   4.282910381446399E-02   4.336804481511284E-02   4.391377297642994E-02
   4.446637396885182E-02   4.502593455106767E-02   4.559254258406593E-02
   4.616628704536944E-02   4.674725804345907E-02   4.733554683239051E-02
   4.793124582660615E-02   4.853444861594422E-02   4.914524998084863E-02
   4.976374590778174E-02   5.039003360484284E-02   5.102421151759551E-02
   5.166637934510551E-02   5.231663805619330E-02   5.297508990590316E-02
   5.364183845219198E-02   5.431698857284061E-02   5.500064648259015E-02
   5.569291975050662E-02   5.639391731757653E-02   5.710374951453665E-02
   5.782252807993972E-02   5.855036617846007E-02   5.928737841944169E-02
   6.003368087569150E-02   6.078939110252024E-02   6.155462815703467E-02
   6.232951261768263E-02   6.311416660405529E-02   6.390871379694743E-02
   6.471327945867988E-02   6.552799045368621E-02   6.635297526936602E-02
   6.718836403720710E-02   6.803428855417977E-02   6.889088230440471E-02
   6.975828048109736E-02   7.063662000878955E-02   7.152603956583246E-02
   7.242667960718084E-02   7.333868238746093E-02   7.426219198432410E-02
   7.519735432208625E-02   7.614431719565527E-02   7.710323029474708E-02
   7.807424522839140E-02   7.905751554972659E-02   8.005319678108393E-02
   8.106144643936324E-02   8.208242406169587E-02   8.311629123139727E-02
   8.416321160420602E-02   8.522335093480858E-02   8.629687710364745E-02
   8.738396014400994E-02   8.848477226939355E-02   8.959948790114745E-02
   9.072828369638064E-02   9.187133857613686E-02   9.302883375382678E-02
   9.420095276391251E-02   9.538788149083807E-02   9.658980819819453E-02
   9.780692355811513E-02   9.903942068088487E-02   1.002874951447573E-01
   1.015513450259657E-01   1.028311709289107E-01   1.041271760165155E-01
   1.054395660407274E-01   1.067685493731476E-01   1.081143370357743E-01
   1.094771427318292E-01   1.108571828766530E-01   1.122546766286375E-01
   1.136698459201683E-01   1.151029154885514E-01   1.165541129068855E-01
   1.180236686148501E-01   1.195118159493669E-01   1.210187911750961E-01
   1.225448335147244E-01   1.240901851789926E-01   1.256550913964163E-01
   1.272398004426408E-01   1.288445636693728E-01   1.304696355328261E-01
   1.321152736216081E-01   1.337817386839794E-01   1.354692946544043E-01
   1.371782086793078E-01   1.389087511419514E-01   1.406611956863247E-01
   1.424358192399577E-01   1.442329020355357E-01   1.460527276312003E-01
   1.478955829294142E-01   1.497617581942449E-01   1.516515470669353E-01
   1.535652465795941E-01   1.555031571668521E-01   1.574655826753032E-01
   1.594528303705438E-01   1.614652109416137E-01   1.635030385026237E-01
   1.655666305913440E-01   1.676563081645157E-01   1.697723955896251E-01
   1.719152206328718E-01   1.740851144430405E-01   1.762824115309654E-01
   1.785074497442659E-01   1.807605702369991E-01   1.830421174338693E-01
   1.853524389885918E-01   1.876918857360026E-01   1.900608116374737E-01
   1.924595737191594E-01   1.948885320025876E-01   1.973480494270605E-01
   1.998384917633139E-01   2.023602275178481E-01   2.049136278272981E-01
   2.074990663421911E-01   2.101169190993869E-01   2.127675643824641E-01
   2.154513825692737E-01   2.181687559658301E-01   2.209200686256726E-01
   2.237057061537720E-01   2.265260554940142E-01   2.293815046992363E-01
   2.322724426827300E-01   2.351992589500792E-01   2.381623433101260E-01
   2.411620855638016E-01   2.441988751694985E-01   2.472731008835684E-01
   2.503851503744911E-01   2.535354098091536E-01   2.567242634096171E-01
   2.599520929786713E-01   2.632192773923731E-01   2.665261920576992E-01
   2.698732083333413E-01   2.732606929115811E-01   2.766890071590886E-01
   2.801585064143793E-01   2.836695392395796E-01   2.872224466240290E-01
   2.908175611371430E-01   2.944552060278671E-01   2.981356942679083E-01
   3.018593275358529E-01   3.056263951391264E-01   3.094371728706675E-01
   3.132919217970434E-01   3.171908869746252E-01   3.211342960903246E-01
   3.251223580232622E-01   3.291552613236311E-01   3.332331726048994E-01
   3.373562348453621E-01   3.415245655949811E-01   3.457382550832914E-01
   3.499973642240926E-01   3.543019225125329E-01   3.586519258100878E-01
   3.630473340128871E-01   3.674880685987418E-01   3.719740100481848E-01
   3.765049951348026E-01   3.810808140800667E-01   3.857012075679222E-01
   3.903658636143532E-01   3.950744142871999E-01   3.998264322715674E-01
   4.046214272762325E-01   4.094588422766024E-01   4.143380495899101E-01
   4.192583467785413E-01   4.242189523776262E-01   4.292190014432982E-01
   4.342575409183843E-01   4.393335248126454E-01   4.444458091951953E-01
   4.495931469971831E-01   4.547741826234649E-01   4.599874463726507E-01
   4.652313486656342E-01   4.705041740836099E-01   4.758040752174769E-01
   4.811290663315948E-01   4.864770168460205E-01   4.918456446425881E-01
   4.972325092016369E-01   5.026350045776807E-01   5.080503522240035E-01
   5.134755936779688E-01   5.189075831207722E-01   5.243429798275547E-01
   5.297782405260042E-01   5.352096116842668E-01   5.406331217527882E-01
   5.460445733833670E-01   5.514395356520023E-01   5.568133363239665E-01
   5.621610541966350E-01   5.674775115556203E-01   5.727572667883827E-01
   5.779946072024280E-01   5.831835420991068E-01   5.883177961583531E-01
   5.933908031940777E-01   5.983957003444772E-01   6.033253227662283E-01
   6.081721989062483E-01   6.129285464295892E-01   6.175862688868946E-01
   6.221369532097216E-01   6.265718681268613E-01   6.308819635994746E-01
   6.350578713773831E-01   6.390899067831577E-01   6.429680718345804E-01
   6.466820598196499E-01   6.502212614413622E-01   6.535747726519753E-01
   6.567314042982484E-01   6.596796937000317E-01   6.624079182846057E-01
   6.649041113980073E-01   6.671560804121536E-01   6.691514272426881E-01
   6.708775713871207E-01   6.723217755854832E-01   6.734711741964642E-01
   6.743128043706113E-01   6.748336400883698E-01   6.750206291143716E-01
   6.748629845689353E-01   6.743590965515404E-01   6.735100008200640E-01
   6.723171593018642E-01   6.707824610896952E-01   6.689082226568756E-01
   6.666971872031308E-01   6.641525230660634E-01   6.612778211545376E-01
   6.580770913793577E-01   6.545547578963031E-01   6.507156520733286E-01
   6.465650089752868E-01   6.421084585362136E-01   6.373520169097076E-01
   6.323020770780147E-01   6.269653985951827E-01   6.213490965039670E-01
   6.154606294664340E-01   6.093077871477588E-01   6.028986768916282E-01
   5.962417097239558E-01   5.893455857195727E-01   5.822192787642338E-01
   5.748720207418300E-01   5.673132851742938E-01   5.595527703393756E-01
   5.516003818894611E-01   5.434662149929683E-01   5.351605360187437E-01
   5.266937637834115E-01   5.180764503819089E-01   5.093192616225616E-01
   5.004329570900565E-01   4.914283698632611E-01   4.823163859177389E-01
   4.731079232494871E-01   4.638139107607184E-01   4.544452669568871E-01
   4.450128785111335E-01   4.355275787598996E-01   4.260001262019713E-01
   4.164411830811674E-01   4.068612941404257E-01   3.972708656417893E-01
   3.876801447524720E-01   3.780991994013501E-01   3.685378987127709E-01
   3.590058941251564E-01   3.495126013004235E-01   3.400671829267077E-01
   3.306785325111986E-01   3.213552592522849E-01   3.121056740707698E-01
   3.029377768689158E-01   2.938592450738537E-01   2.848774235087234E-01
   2.759993156212755E-01   2.672315760856874E-01   2.585805047796340E-01
   2.500520421255242E-01   2.416517657722931E-01   2.333848885827700E-01
   2.252562578814508E-01   2.172703559086887E-01   2.094313014199537E-01
   2.017428523629332E-01   1.942084095608482E-01   1.868310213273973E-01
   1.796133889371077E-01   1.725578728745000E-01   1.656664997861784E-01
   1.589409700616445E-01   1.523826659711172E-01   1.459926602917867E-01
   1.397717253575826E-01   1.337203424715525E-01   1.278387116241980E-01
   1.221267614654815E-01   1.165841594825844E-01   1.112103223398011E-01
   1.060044263410890E-01   1.009654179797259E-01   9.609202454321140E-02
   9.138276474494000E-02   8.683595935728045E-02   8.244974182349160E-02
   7.822206882840660E-02   7.415073081003308E-02   7.023336239615442E-02
   6.646745275171317E-02   6.285035582421297E-02   5.937930047562413E-02
   5.605140049033743E-02   5.286366444958684E-02   4.981300546348830E-02
   4.689625075240843E-02   4.411015106980794E-02   4.145138995899925E-02
   3.891659283642018E-02   3.650233589406802E-02   3.420515481365609E-02
   3.202155328486763E-02   2.994801131979308E-02   2.798099335526065E-02
   2.611695613434203E-02   2.435235635783320E-02   2.268365809600973E-02
   2.110733995049516E-02   1.961990195565149E-02   1.821787220855013E-02
   1.689781321635268E-02   1.565632794984055E-02   1.449006559190906E-02
   1.339572697010599E-02   1.237006966276288E-02   1.140991276894388E-02
   1.051214133332716E-02   9.673710418228083E-03   8.891648816261326E-03
   8.163062398603123E-03   7.485137095429133E-03   6.855141506843593E-03
   6.270429144449479E-03   5.728440305604992E-03   5.226703584337221E-03
   4.762837024805072E-03   4.334548925089764E-03   3.939638300912566E-03
   3.575995020608374E-03   3.241599624297264E-03   2.934522841672128E-03
   2.652924824143478E-03   2.395054108238127E-03   2.159246328127386E-03
   1.943922695956956E-03   1.747588269261605E-03   1.568830025173949E-03
   1.406314761381274E-03   1.258786843853101E-03   1.125065821263442E-03
   1.004043925774852E-03   8.946834794482632E-04   7.960142250054183E-04
   7.071305990131854E-04   6.271889647951268E-04   5.554048215197420E-04
   4.910500049813962E-04   4.334498945933789E-04   3.819806400668547E-04
   3.360664201683041E-04   2.951767448442701E-04   2.588238108881378E-04
   2.265599202106095E-04   1.979749686740080E-04   1.726940123701020E-04
   1.503749171703205E-04   1.307060963635565E-04   1.134043402267836E-04
   9.821274045292235E-05   8.489871149354272E-05   7.325211006515240E-05
   6.308345331066061E-05   5.422223543646398E-05   4.651534200283932E-05
   3.982556049162348E-05   3.403018527435216E-05   2.901971466565984E-05
   2.469663736844153E-05   2.097430529669352E-05   1.777588949653549E-05
   1.503341567275182E-05   1.268687566406794E-05   1.068341109184392E-05
   8.976565330285545E-06   7.525599907920738E-06   6.294871445781959E-06
   5.253265262626049E-06   4.373716204974465E-06   3.633015355542125E-06
   3.010719168954570E-06   2.489126062071633E-06   2.052977813670072E-06
   1.689154080133630E-06   1.386400435818937E-06   1.135086898663647E-06
   9.269940963448362E-07   7.551244192848292E-07   6.135356942174415E-07
   4.971950946753281E-07   4.018511816207695E-07   3.239221376183676E-07
   2.603984209154573E-07   2.087582207102853E-07   1.668942416696499E-07
   1.330504839517297E-07   1.057678145083398E-07   8.383724624285972E-08
   6.625995374345718E-08   5.221315793926750E-08   4.102110735534426E-08
   3.213047094659973E-08   2.508953709751219E-08   1.953068564826207E-08
   1.515566514405038E-08   1.172326631833808E-08   9.039035541097920E-09
   6.946719024042857E-09   5.321170409763862E-09   4.062491408468912E-09
   3.091207801955534E-09   2.344311813148804E-09   1.772026928154476E-09
   1.335173125361018E-09   1.003029462887929E-09   7.516074333241128E-10
   5.622627279730359E-10   4.205853625717400E-10   3.134365437913346E-10
   2.327048014679355E-10   1.721078435977898E-10   1.267986683595952E-10
   9.305212082928011E-11   6.801645465285723E-11   4.951720748973978E-11
   3.590300285626643E-11   2.592481323374914E-11   1.864181580094092E-11
   1.334829198917757E-11   9.517108117202579E-12   6.756203876128654E-12
   4.775240546245468E-12   3.360149122581959E-12   2.353793543378530E-12
   1.641345923481168E-12   1.139275936494578E-12   7.870993915660785E-13
   5.412233929619921E-13   3.703770208541251E-13   2.522352831045699E-13
   1.709367621532841E-13   1.152672996563650E-13   7.733758568457698E-14
   5.162516366673640E-14   3.428394282572137E-14   2.264906984448041E-14
   1.488372757592757E-14   9.728499728181083E-15   6.324461728418895E-15
   4.088981624017808E-15   2.629000214094024E-15   1.680813624225931E-15
   1.068491801290358E-15   6.753273807079763E-16   4.243434410139446E-16
   2.650627169831959E-16   1.645793928212160E-16   1.015699318314476E-16
   6.229950339711311E-17   3.797520560470830E-17   2.300264581075641E-17
   1.384468619464716E-17   8.279063799557906E-18   4.918546885057602E-18
   2.902779955360386E-18   1.701676180032024E-18   9.908058528645788E-19
   5.729436634995677E-19   3.290102277141228E-19   1.876043620167994E-19
   1.062120951863559E-19   5.969851134859369E-20   3.330979722081699E-20
   1.844843033680465E-20   1.014110493471973E-20   5.532335721518559E-21
   2.994936543964824E-21   1.608720155401419E-21   8.573231736997372E-22
   4.532488089015291E-22   2.376912270284210E-22   1.236316829351953E-22
   6.377372365407783E-23   3.262148980838467E-23   1.654511968056655E-23
   8.319431467219799E-24   4.146941609921107E-24   2.048920271875817E-24
   1.003313824492067E-24   4.868713906006072E-25   2.341035210114694E-25
   1.115238501009255E-25   5.263115936034056E-26   2.460266268078573E-26
   1.139024989174780E-26   5.222081847802852E-27   2.370609572450809E-27
   1.065438323486418E-27   4.740168940627015E-28   2.087378321461497E-28
   9.096917993126282E-29   3.922982471356540E-29   1.673824549144706E-29
   7.065074625371554E-30   2.949700172151024E-30   1.217961601971620E-30
   4.973057441988406E-31   2.007642138294608E-31   8.012353460171627E-32
   3.160691511467871E-32
    </PP_CHI.1>
    <PP_CHI.2 size="1135" index="2" label="3P" l="1" occupation="1.0000000000000000" n="2" cutoff_radius="2.0000000000000000" ultrasoft_cutoff_radius="2.1000000000000001">
   1.310259464536620E-09   1.343428840761403E-09   1.377437903741082E-09
   1.412307910247205E-09   1.448060655168806E-09   1.484718485135157E-09
   1.522304312483136E-09   1.560841629578187E-09   1.600354523497809E-09
   1.640867691086765E-09   1.682406454393413E-09   1.724996776496811E-09
   1.768665277734484E-09   1.813439252340999E-09   1.859346685507759E-09
   1.906416270874646E-09   1.954677428464488E-09   2.004160323071524E-09
   2.054895883115385E-09   2.106915819972365E-09   2.160252647796056E-09
   2.214939703839756E-09   2.271011169293336E-09   2.328502090647594E-09
   2.387448401599458E-09   2.447886945511702E-09   2.509855498441258E-09
   2.573392792750477E-09   2.638538541316111E-09   2.705333462351159E-09
   2.773819304855067E-09   2.844038874708215E-09   2.916036061426988E-09
   2.989855865596141E-09   3.065544426995638E-09   3.143149053439511E-09
   3.222718250344774E-09   3.304301751048891E-09   3.387950547894737E-09
   3.473716924102459E-09   3.561654486448191E-09   3.651818198770041E-09
   3.744264416322260E-09   3.839050920999120E-09   3.936236957450478E-09
   4.035883270111591E-09   4.138052141170387E-09   4.242807429495833E-09
   4.350214610551818E-09   4.460340817321449E-09   4.573254882267330E-09
   4.689027380354104E-09   4.807730673160093E-09   4.929438954105634E-09
   5.054228294826382E-09   5.182176692720554E-09   5.313364119699830E-09
   5.447872572174406E-09   5.585786122303392E-09   5.727190970542679E-09
   5.872175499522998E-09   6.020830329291931E-09   6.173248373954399E-09
   6.329524899746990E-09   6.489757584582459E-09   6.654046579101580E-09
   6.822494569270542E-09   6.995206840563038E-09   7.172291343767089E-09
   7.353858762457808E-09   7.540022582178176E-09   7.730899161371263E-09
   7.926607804107979E-09   8.127270834656003E-09   8.333013673936421E-09
   8.543964917915889E-09   8.760256417983265E-09   8.982023363361016E-09
   9.209404365602832E-09   9.442541545230398E-09   9.681580620563287E-09
   9.926670998797671E-09   1.017796586939064E-08   1.043562229980859E-08
   1.069980133369948E-08   1.097066809155032E-08   1.124839187389285E-08
   1.153314626712185E-08   1.182510925199227E-08   1.212446331486293E-08
   1.243139556175647E-08   1.274609783530665E-08   1.306876683466617E-08
   1.339960423845008E-08   1.373881683079141E-08   1.408661663058795E-08
   1.444322102402093E-08   1.480885290042840E-08   1.518374079161832E-08
   1.556811901470836E-08   1.596222781858154E-08   1.636631353404973E-08
   1.678062872781827E-08   1.720543236034835E-08   1.764098994771574E-08
   1.808757372756684E-08   1.854546282927599E-08   1.901494344841042E-08
   1.949630902561173E-08   1.998986043000575E-08   2.049590614725546E-08
   2.101476247237442E-08   2.154675370742156E-08   2.209221236420021E-08
   2.265147937208891E-08   2.322490429113315E-08   2.381284553053164E-08
   2.441567057265379E-08   2.503375620272790E-08   2.566748874434415E-08
   2.631726430091921E-08   2.698348900327373E-08   2.766657926347718E-08
   2.836696203511873E-08   2.908507508016710E-08   2.982136724258572E-08
   3.057629872887484E-08   3.135034139571529E-08   3.214397904489416E-08
   3.295770772569639E-08   3.379203604495149E-08   3.464748548492933E-08
   3.552459072928303E-08   3.642389999724368E-08   3.734597538627493E-08
   3.829139322340178E-08   3.926074442543350E-08   4.025463486830564E-08
   4.127368576577138E-08   4.231853405767490E-08   4.338983280807002E-08
   4.448825161340172E-08   4.561447702102448E-08   4.676921295831640E-08
   4.795318117265662E-08   4.916712168253996E-08   5.041179324011241E-08
   5.168797380541549E-08   5.299646103263591E-08   5.433807276866527E-08
   5.571364756427992E-08   5.712404519826220E-08   5.857014721478958E-08
   6.005285747442763E-08   6.157310271907208E-08   6.313183315119131E-08
   6.473002302773358E-08   6.636867126906829E-08   6.804880208334297E-08
   6.977146560664624E-08   7.153773855937532E-08   7.334872491922113E-08
   7.520555661118894E-08   7.710939421508702E-08   7.906142769092678E-08
   8.106287712268361E-08   8.311499348088966E-08   8.521905940452846E-08
   8.737639000272539E-08   8.958833367673258E-08   9.185627296272054E-08
   9.418162539590898E-08   9.656584439656890E-08   9.901042017845657E-08
   1.015168806802446E-07   1.040867925205289E-07   1.067217619770180E-07
   1.094234359905033E-07   1.121935031942504E-07   1.150336949694477E-07
   1.179457865273712E-07   1.209315980189500E-07   1.239929956724149E-07
   1.271318929597492E-07   1.303502517926695E-07   1.336500837488782E-07
   1.370334513293655E-07   1.405024692475331E-07   1.440593057509563E-07
   1.477061839766066E-07   1.514453833403773E-07   1.552792409617931E-07
   1.592101531247770E-07   1.632405767754034E-07   1.673730310575646E-07
   1.716100988875101E-07   1.759544285682510E-07   1.804087354448280E-07
   1.849758036014836E-07   1.896584876018023E-07   1.944597142728940E-07
   1.993824845347544E-07   2.044298752759264E-07   2.096050412766495E-07
   2.149112171806929E-07   2.203517195171009E-07   2.259299487731273E-07
   2.316493915196373E-07   2.375136225903192E-07   2.435263073160626E-07
   2.496912038158946E-07   2.560121653459196E-07   2.624931427077144E-07
   2.691381867176952E-07   2.759514507389997E-07   2.829371932774527E-07
   2.900997806432644E-07   2.974436896800951E-07   3.049735105632130E-07
   3.126939496684878E-07   3.206098325140060E-07   3.287261067761639E-07
   3.370478453821012E-07   3.455802496804247E-07   3.543286526922034E-07
   3.632985224442480E-07   3.724954653867904E-07   3.819252298976649E-07
   3.915937098752069E-07   4.015069484221042E-07   4.116711416224972E-07
   4.220926424147096E-07   4.327779645620015E-07   4.437337867238504E-07
   4.549669566302986E-07   4.664844953619592E-07   4.782936017383906E-07
   4.904016568175413E-07   5.028162285091107E-07   5.155450763046941E-07
   5.285961561276592E-07   5.419776253058164E-07   5.556978476699512E-07
   5.697653987814355E-07   5.841890712921734E-07   5.989778804402286E-07
   6.141410696845776E-07   6.296881164824990E-07   6.456287382132206E-07
   6.619728982515206E-07   6.787308121950768E-07   6.959129542494650E-07
   7.135300637747855E-07   7.315931519980173E-07   7.501135088952967E-07
   7.691027102484115E-07   7.885726248799340E-07   8.085354220715015E-07
   8.290035791698944E-07   8.499898893856569E-07   8.715074697891305E-07
   8.935697695089144E-07   9.161905781378523E-07   9.393840343518271E-07
   9.631646347467239E-07   9.875472428991051E-07   1.012547098656244E-06
   1.038179827661338E-06   1.064461451119837E-06   1.091408395813013E-06
   1.119037504365005E-06   1.147366045769782E-06   1.176411726184573E-06
   1.206192699996532E-06   1.236727581169560E-06   1.268035454878339E-06
   1.300135889436900E-06   1.333048948529132E-06   1.366795203748906E-06
   1.401395747457651E-06   1.436872205967389E-06   1.473246753057505E-06
   1.510542123833675E-06   1.548781628937617E-06   1.587989169116561E-06
   1.628189250161511E-06   1.669406998223685E-06   1.711668175518640E-06
   1.754999196427954E-06   1.799427144008507E-06   1.844979786919657E-06
   1.891685596778932E-06   1.939573765957038E-06   1.988674225823345E-06
   2.039017665453234E-06   2.090635550808978E-06   2.143560144406195E-06
   2.197824525478094E-06   2.253462610650183E-06   2.310509175138318E-06
   2.368999874483332E-06   2.428971266835886E-06   2.490460835805376E-06
   2.553507013887265E-06   2.618149206483435E-06   2.684427816530535E-06
   2.752384269751834E-06   2.822061040548188E-06   2.893501678544458E-06
   2.966750835807882E-06   3.041854294755410E-06   3.118858996767499E-06
   3.197813071526181E-06   3.278765867095757E-06   3.361767980764967E-06
   3.446871290669799E-06   3.534128988216823E-06   3.623595611327198E-06
   3.715327078522209E-06   3.809380723871590E-06   3.905815332826461E-06
   4.004691178959317E-06   4.106070061633965E-06   4.210015344629001E-06
   4.316591995738902E-06   4.425866627377588E-06   4.537907538209633E-06
   4.652784755835336E-06   4.770570080556212E-06   4.891337130248253E-06
   5.015161386371070E-06   5.142120241141512E-06   5.272293045901422E-06
   5.405761160709602E-06   5.542608005189050E-06   5.682919110661245E-06
   5.826782173599891E-06   5.974287110437798E-06   6.125526113760891E-06
   6.280593709924571E-06   6.439586818128447E-06   6.602604810986163E-06
   6.769749576628448E-06   6.941125582377933E-06   7.116839940035611E-06
   7.297002472819842E-06   7.481725783999356E-06   7.671125327263632E-06
   7.865319478874162E-06   8.064429611641927E-06   8.268580170777268E-06
   8.477898751659348E-06   8.692516179574038E-06   8.912566591469890E-06
   9.138187519783245E-06   9.369519978384931E-06   9.606708550702053E-06
   9.849901480070227E-06   1.009925076237227E-05   1.035491224102160E-05
   1.061704570434947E-05   1.088581498545670E-05   1.116138806459266E-05
   1.144393717412514E-05   1.173363890616675E-05   1.203067432292502E-05
   1.233522906984513E-05   1.264749349161598E-05   1.296766275111196E-05
   1.329593695134466E-05   1.363252126050092E-05   1.397762604014470E-05
   1.433146697666361E-05   1.469426521604150E-05   1.506624750204163E-05
   1.544764631788656E-05   1.583870003152311E-05   1.623965304456328E-05
   1.665075594499399E-05   1.707226566375098E-05   1.750444563525470E-05
   1.794756596200800E-05   1.840190358335902E-05   1.886774244853403E-05
   1.934537369404844E-05   1.983509582560675E-05   2.033721490460512E-05
   2.085204473935211E-05   2.137990708112819E-05   2.192113182520535E-05
   2.247605721695273E-05   2.304503006315671E-05   2.362840594868718E-05
   2.422654945864554E-05   2.483983440613273E-05   2.546864406577925E-05
   2.611337141318349E-05   2.677441937040673E-05   2.745220105767868E-05
   2.814714005147075E-05   2.885967064909687E-05   2.959023814000821E-05
   3.033929908395008E-05   3.110732159615475E-05   3.189478563974812E-05
   3.270218332555246E-05   3.353001921947227E-05   3.437881065765408E-05
   3.524908806961803E-05   3.614139530956181E-05   3.705628999604303E-05
   3.799434386025317E-05   3.895614310309832E-05   3.994228876131085E-05
   4.095339708281890E-05   4.199009991160835E-05   4.305304508231716E-05
   4.414289682480668E-05   4.526033617896359E-05   4.640606141998921E-05
   4.758078849444271E-05   4.878525146730849E-05   5.002020298036609E-05
   5.128641472214884E-05   5.258467790978379E-05   5.391580378301155E-05
   5.528062411069571E-05   5.667999171013433E-05   5.811478097949918E-05
   5.958588844373277E-05   6.109423331424288E-05   6.264075806274338E-05
   6.422642900959696E-05   6.585223692702683E-05   6.751919765757255E-05
   6.922835274817370E-05   7.098077010027663E-05   7.277754463636666E-05
   7.461979898334212E-05   7.650868417315368E-05   7.844538036114380E-05
   8.043109756253584E-05   8.246707640751967E-05   8.455458891542556E-05
   8.669493928844010E-05   8.888946472536314E-05   9.113953625594530E-05
   9.344655959625590E-05   9.581197602568397E-05   9.823726328606849E-05
   1.007239365035376E-04   1.032735491336082E-04   1.058876939301697E-04
   1.085680039389024E-04   1.113161535157944E-04   1.141338593713512E-04
   1.170228816411635E-04   1.199850249835033E-04   1.230221397045922E-04
   1.261361229122921E-04   1.293289196988908E-04   1.326025243537142E-04
   1.359589816063561E-04   1.394003879012404E-04   1.429288927043513E-04
   1.465466998429013E-04   1.502560688787894E-04   1.540593165166875E-04
   1.579588180476311E-04   1.619570088290038E-04   1.660563858018015E-04
   1.702595090461821E-04   1.745690033761704E-04   1.789875599745861E-04
   1.835179380691313E-04   1.881629666507086E-04   1.929255462350506E-04
   1.978086506686722E-04   2.028153289803376E-04   2.079487072791116E-04
   2.132119907002323E-04   2.186084653999419E-04   2.241415006005140E-04
   2.298145506867697E-04   2.356311573553285E-04   2.415949518179248E-04
   2.477096570601513E-04   2.539790901569907E-04   2.604071646466069E-04
   2.669978929637586E-04   2.737553889344285E-04   2.806838703331107E-04
   2.877876615043760E-04   2.950711960502711E-04   3.025390195852428E-04
   3.101957925602204E-04   3.180462931576101E-04   3.260954202589495E-04
   3.343481964870565E-04   3.428097713244730E-04   3.514854243101660E-04
   3.603805683163611E-04   3.695007529075755E-04   3.788516677838053E-04
   3.884391463100323E-04   3.982691691341364E-04   4.083478678954327E-04
   4.186815290260665E-04   4.292765976475590E-04   4.401396815648938E-04
   4.512775553604869E-04   4.626971645905905E-04   4.744056300865742E-04
   4.864102523637684E-04   4.987185161404083E-04   5.113380949695335E-04
   5.242768559864195E-04   5.375428647745496E-04   5.511443903534936E-04
   5.650899102898507E-04   5.793881159373379E-04   5.940479178062612E-04
   6.090784510672969E-04   6.244890811920636E-04   6.402894097340662E-04
   6.564892802541829E-04   6.730987843924654E-04   6.901282680914095E-04
   7.075883379741895E-04   7.254898678806526E-04   7.438440055657550E-04
   7.626621795647454E-04   7.819561062273713E-04   8.017377969279981E-04
   8.220195654529098E-04   8.428140355712296E-04   8.641341487932398E-04
   8.859931723201254E-04   9.084047071901491E-04   9.313826966268588E-04
   9.549414345921344E-04   9.790955745510282E-04   1.003860138452325E-03
   1.029250525930301E-03   1.055282523733371E-03   1.081972315383886E-03
   1.109336491075819E-03   1.137392057815663E-03   1.166156449811595E-03
   1.195647539118241E-03   1.225883646541109E-03   1.256883552808845E-03
   1.288666510018220E-03   1.321252253358539E-03   1.354661013123641E-03
   1.388913527014358E-03   1.424031052743119E-03   1.460035380943735E-03
   1.496948848395677E-03   1.534794351569797E-03   1.573595360501775E-03
   1.613375933002271E-03   1.654160729211518E-03   1.695975026504513E-03
   1.738844734757710E-03   1.782796411981766E-03   1.827857280333031E-03
   1.874055242508578E-03   1.921418898535403E-03   1.969977562962772E-03
   2.019761282465370E-03   2.070800853868366E-03   2.123127842602283E-03
   2.176774601597689E-03   2.231774290630443E-03   2.288160896125109E-03
   2.345969251429826E-03   2.405235057569862E-03   2.465994904491908E-03
   2.528286292810404E-03   2.592147656064771E-03   2.657618383500165E-03
   2.724738843381875E-03   2.793550406856511E-03   2.864095472368756E-03
   2.936417490647846E-03   3.010560990274624E-03   3.086571603841587E-03
   3.164496094717314E-03   3.244382384429278E-03   3.326279580676602E-03
   3.410238005984670E-03   3.496309227017345E-03   3.584546084556434E-03
   3.675002724164419E-03   3.767734627542104E-03   3.862798644595788E-03
   3.960253026226963E-03   4.060157457858684E-03   4.162573093712914E-03
   4.267562591851496E-03   4.375190149997342E-03   4.485521542147628E-03
   4.598624155994890E-03   4.714567031170232E-03   4.833420898322434E-03
   4.955258219048971E-03   5.080153226691623E-03   5.208181968013688E-03
   5.339422345770894E-03   5.473954162193119E-03   5.611859163389573E-03
   5.753221084693464E-03   5.898125696959616E-03   6.046660853830667E-03
   6.198916539984761E-03   6.354984920380208E-03   6.514960390510325E-03
   6.678939627683255E-03   6.847021643338893E-03   7.019307836417955E-03
   7.195902047795388E-03   7.376910615790538E-03   7.562442432768109E-03
   7.752609002839299E-03   7.947524500677844E-03   8.147305831459081E-03
   8.352072691934578E-03   8.561947632651275E-03   8.777056121324301E-03
   8.997526607373652E-03   9.223490587629267E-03   9.455082673215409E-03
   9.692440657617134E-03   9.935705585935909E-03   1.018502182533747E-02
   1.044053713669512E-02   1.070240274742976E-02   1.097077342554841E-02
   1.124580755487775E-02   1.152766721149262E-02   1.181651824133419E-02
   1.211253033901128E-02   1.241587712777914E-02   1.272673624068427E-02
   1.304528940286471E-02   1.337172251499141E-02   1.370622573783472E-02
   1.404899357793770E-02   1.440022497437444E-02   1.476012338656905E-02
   1.512889688315059E-02   1.550675823180960E-02   1.589392499012771E-02
   1.629061959733954E-02   1.669706946698877E-02   1.711350708043272E-02
   1.754017008114687E-02   1.797730136977823E-02   1.842514919988687E-02
   1.888396727431688E-02   1.935401484212732E-02   1.983555679601188E-02
   2.032886377012783E-02   2.083421223825227E-02   2.135188461217333E-02
   2.188216934022227E-02   2.242536100584127E-02   2.298176042607742E-02
   2.355167474988586E-02   2.413541755611463E-02   2.473330895104096E-02
   2.534567566531330E-02   2.597285115015080E-02   2.661517567263987E-02
   2.727299640995610E-02   2.794666754233527E-02   2.863655034459901E-02
   2.934301327603866E-02   3.006643206844016E-02   3.080718981202882E-02
   3.156567703909733E-02   3.234229180506476E-02   3.313743976670856E-02
   3.395153425728940E-02   3.478499635827986E-02   3.563825496739375E-02
   3.651174686259145E-02   3.740591676173000E-02   3.832121737750183E-02
   3.925810946729531E-02   4.021706187758976E-02   4.119855158248165E-02
   4.220306371591885E-02   4.323109159720170E-02   4.428313674929125E-02
   4.535970890944377E-02   4.646132603167112E-02   4.758851428050596E-02
   4.874180801552951E-02   4.992174976609697E-02   5.112889019567776E-02
   5.236378805519802E-02   5.362701012475893E-02   5.491913114307483E-02
   5.624073372395416E-02   5.759240825912693E-02   5.897475280668941E-02
   6.038837296442461E-02   6.183388172722508E-02   6.331189932782463E-02
   6.482305306002360E-02   6.636797708356444E-02   6.794731220979990E-02
   6.956170566726239E-02   7.121181084623276E-02   7.289828702138053E-02
   7.462179905152411E-02   7.638301705554941E-02   7.818261606349645E-02
   8.002127564181519E-02   8.189967949177332E-02   8.381851501998189E-02
   8.577847287999957E-02   8.778024648395852E-02   8.982453148315049E-02
   9.191202521651300E-02   9.404342612593393E-02   9.621943313731969E-02
   9.844074500634810E-02   1.007080596278518E-01   1.030220733077857E-01
   1.053834799967334E-01   1.077929704839464E-01   1.102512315509122E-01
   1.127589450834856E-01   1.153167871416528E-01   1.179254269860193E-01
   1.205855260601760E-01   1.232977369281279E-01   1.260627021660335E-01
   1.288810532075654E-01   1.317534091422549E-01   1.346803754662756E-01
   1.376625427851789E-01   1.407004854681960E-01   1.437947602538070E-01
   1.469459048063661E-01   1.501544362236951E-01   1.534208494956459E-01
   1.567456159137606E-01   1.601291814322807E-01   1.635719649808635E-01
   1.670743567295174E-01   1.706367163063740E-01   1.742593709690631E-01
   1.779426137305915E-01   1.816867014407403E-01   1.854918528241544E-01
   1.893582464763933E-01   1.932860188193511E-01   1.972752620175608E-01
   2.013260218569805E-01   2.054382955879682E-01   2.096120297341884E-01
   2.138471178692515E-01   2.181433983629076E-01   2.225006520985741E-01
   2.269186001639615E-01   2.313969015164265E-01   2.359351506245793E-01
   2.405328750874379E-01   2.451895332321878E-01   2.499045116912754E-01
   2.546771229591367E-01   2.595066029284092E-01   2.643921084048486E-01
   2.693327145995131E-01   2.743274125959657E-01   2.793751067893059E-01
   2.844746122928066E-01   2.896246523067025E-01   2.948238554423270E-01
   3.000707529932856E-01   3.053637761436150E-01   3.107012531010416E-01
   3.160814061413402E-01   3.215023485476356E-01   3.269620814267206E-01
   3.324584903792716E-01   3.379893419980554E-01   3.435522801703344E-01
   3.491448221535941E-01   3.547643543879995E-01   3.604081280081409E-01
   3.660732540121766E-01   3.717566980422112E-01   3.774552747255926E-01
   3.831656415224755E-01   3.888842920205852E-01   3.946075486137980E-01
   4.003315544967799E-01   4.060522649037872E-01   4.117654375157826E-01
   4.174666219563659E-01   4.231511482938657E-01   4.288141144642620E-01
   4.344503725277099E-01   4.400545136703783E-01   4.456208518632946E-01
   4.511434060911884E-01   4.566158810670520E-01   4.620316463526334E-01
   4.673837138115483E-01   4.726647133304365E-01   4.778668667549528E-01
   4.829819600016111E-01   4.880013133239672E-01   4.929157497326298E-01
   4.977155615935543E-01   5.023904754583762E-01   5.069296152143917E-01
   5.113214636806919E-01   5.155538228211548E-01   5.196137727947481E-01
   5.234893920853435E-01   5.271753278050482E-01   5.306680622411937E-01
   5.339642373099688E-01   5.370606616720565E-01   5.399543177395155E-01
   5.426423684978630E-01   5.451221640817955E-01   5.473912480564789E-01
   5.494473633687188E-01   5.512884581855992E-01   5.529126930566446E-01
   5.543184412542054E-01   5.555042952857439E-01   5.564690712242816E-01
   5.572118123999994E-01   5.577317927167158E-01   5.580285195998300E-01
   5.581017365819020E-01   5.579514255310144E-01   5.575778085253763E-01
   5.569813493752990E-01   5.561627547908917E-01   5.551229751906309E-01
   5.538632051424124E-01   5.523848834250092E-01   5.506896926940118E-01
   5.487795587325867E-01   5.466566492636289E-01   5.443233722966770E-01
   5.417823739799785E-01   5.390365359258389E-01   5.360889719759093E-01
   5.329430243725365E-01   5.296022593028403E-01   5.260704617843780E-01
   5.223516298640273E-01   5.184499681061544E-01   5.143698803533142E-01
   5.101159617498481E-01   5.056929900273260E-01   5.011059160613223E-01
   4.963598537200964E-01   4.914600690375224E-01   4.864119687547225E-01
   4.812210882869755E-01   4.758930791840649E-01   4.704336961630416E-01
   4.648487838019003E-01   4.591442629906070E-01   4.533261172420053E-01
   4.474003789690469E-01   4.413731158365131E-01   4.352504172947787E-01
   4.290383814002547E-01   4.227431020220926E-01   4.163706565276593E-01
   4.099270940305815E-01   4.034184242747986E-01   3.968506072167127E-01
   3.902295433555361E-01   3.835610648492728E-01   3.768509274411783E-01
   3.701048032091107E-01   3.633282741382646E-01   3.565268265066003E-01
   3.497058460619968E-01   3.428706139609959E-01   3.360263034309926E-01
   3.291779771109701E-01   3.223305850204063E-01   3.154889631017358E-01
   3.086578322787578E-01   3.018417979715129E-01   2.950453500073568E-01
   2.882728628681316E-01   2.815285962143460E-01   2.748166956290314E-01
   2.681411935263125E-01   2.615060101725942E-01   2.549149547715450E-01
   2.483717265676028E-01   2.418799159265011E-01   2.354430053552149E-01
   2.290643704276733E-01   2.227472805865900E-01   2.164948997957198E-01
   2.103102870208053E-01   2.041963965213823E-01   1.981560779394754E-01
   1.921920761750781E-01   1.863070310421404E-01   1.805034767026376E-01
   1.747838408801633E-01   1.691504438583813E-01   1.636054972735967E-01
   1.581511027146362E-01   1.527892501471571E-01   1.475218161833680E-01
   1.423505622219039E-01   1.372771324861892E-01   1.323030519929445E-01
   1.274297244854970E-01   1.226584303691222E-01   1.179903246876937E-01
   1.134264351824287E-01   1.089676604743290E-01   1.046147684120010E-01
   1.003683946259907E-01   9.622904132940789E-02   9.219707640251393E-02
   8.827273279618669E-02   8.445610828577312E-02   8.074716560286069E-02
   7.714573296805172E-02   7.365150504300907E-02   7.026404431495357E-02
   6.698278292156030E-02   6.380702491892279E-02   6.073594899003892E-02
   5.776861158622278E-02   5.490395048904351E-02   5.214078877591828E-02
   4.947783916839821E-02   4.691370873853511E-02   4.444690394553873E-02
   4.207583597224680E-02   3.979882632874827E-02   3.761411268881625E-02
   3.551985492361417E-02   3.351414129641705E-02   3.159499478180839E-02
   2.976037947294939E-02   2.800820704102831E-02   2.633634321184903E-02
   2.474261422567417E-02   2.322481324785277E-02   2.178070669940452E-02
   2.040804047855900E-02   1.910454604622563E-02   1.786794635046334E-02
   1.669596156719716E-02   1.558631463666188E-02   1.453673657731510E-02
   1.354497156122722E-02   1.260878173720609E-02   1.172595179012514E-02
   1.089429322708491E-02   1.011164838312910E-02   9.375894141249249E-03
   8.684945363334792E-03   8.036758030549027E-03   7.429332093330754E-03
   6.860714032829810E-03   6.328999137078965E-03   5.832333496582405E-03
   5.368915725260346E-03   4.936998413830572E-03   4.534889323730843E-03
   4.160952330592525E-03   3.813608127076684E-03   3.491334695604702E-03
   3.192667561756455E-03   2.916199840319448E-03   2.660582085572008E-03
   2.424521958016936E-03   2.206783719910405E-03   2.006187572011677E-03
   1.821608843986896E-03   1.651977050830337E-03   1.496274827523833E-03
   1.353536753944127E-03   1.222848081753495E-03   1.103343374675282E-03
   9.942050731677372E-04   8.946619940772062E-04   8.039877753417813E-04
   7.214992751457463E-04   6.465600062352366E-04   5.786186731478814E-04
   5.171098785614729E-04   4.615007687629273E-04   4.112951284998319E-04
   3.660315296238974E-04   3.252815200892908E-04   2.886478563158067E-04
   2.557627818315948E-04   2.262863547848290E-04   1.999048265893420E-04
   1.763290736482639E-04   1.552930837850768E-04   1.365524986887315E-04
   1.198832134092075E-04   1.050800336182968E-04   9.195539108749897E-05
   8.033811756848446E-05   7.007227701187000E-05   6.101605582715623E-05
   5.304071067145854E-05   4.602957305832891E-05   3.987710990173905E-05
   3.448803895535049E-05   2.977649797484379E-05   2.566526632270647E-05
   2.208503765212311E-05   1.897374225142689E-05   1.627591760538206E-05
   1.394212573745239E-05   1.192841594213625E-05   1.019583160356974E-05
   8.709959932663366E-06   7.440523648883214E-06   6.343191641840912E-06
   5.396571070976496E-06   4.581654295139677E-06   3.881589003346322E-06
   3.281466103461618E-06   2.768124492186919E-06   2.329971819586370E-06
   1.956820358171311E-06   1.639737089722792E-06   1.370907132011695E-06
   1.143509641797208E-06   9.516053493668629E-07   7.900349028470539E-07
   6.543272269922334E-07   5.406171305975048E-07   4.455714285378069E-07
   3.663228782046281E-07   3.004112653043926E-07   2.457310101486110E-07
   2.004847022853529E-07   1.631420082115376E-07   1.324034336194252E-07
   1.071684578598266E-07   8.650759377785966E-08   6.963796056053938E-08
   5.590199053149955E-08   4.474892277390411E-08   3.571876692853196E-08
   2.842844940176011E-08   2.255988145828825E-08   1.784971422308080E-08
   1.408056945728399E-08   1.107355710633200E-08   8.681911066420037E-09
   6.785593415486060E-09   5.286734557986260E-09   4.105792401467874E-09
   3.178327888590495E-09   2.452307028968773E-09   1.885851093989105E-09
   1.445366940621062E-09   1.103998604684867E-09   8.403494375921980E-10
   6.374312396394504E-10   4.818031517270615E-10   3.628685871280386E-10
   2.723032931891832E-10   2.035918029980590E-10   1.516531379274091E-10
   1.125397176420396E-10   8.319608379390867E-11   6.126630149740674E-11
   4.494081817569389E-11   3.283517718849053E-11   2.389434394882732E-11
   1.731754086762119E-11   1.249943624910068E-11   8.984319260664815E-12
   6.430542921618404E-12   4.583051139892028E-12   3.252242754588509E-12
   2.297781321436730E-12   1.616247718243930E-12   1.131765224935094E-12
   7.889134362841503E-13   5.473965219688335E-13   3.780499307378655E-13
   2.598634490209458E-13   1.777723762761346E-13   1.210264275337414E-13
   8.199105820226983E-14   5.527086510317658E-14   3.707168622458378E-14
   2.473871857299769E-14   1.642377432033663E-14   1.084679480971500E-14
   7.125805951521869E-15   4.656308373396426E-15   3.026184173412626E-15
   1.955983507465344E-15   1.257248699122930E-15   8.035871049106622E-16
   5.107044985196941E-16   3.227009050816909E-16   2.027182663825460E-16
   1.265947836893991E-16   7.858444530293256E-17   4.848667976197421E-17
   2.973309922372812E-17   1.811991624181908E-17   1.097327925368374E-17
   6.603078467964478E-18   3.947765746275366E-18   2.344854232834423E-18
   1.383579476895423E-18   8.109235911535622E-19   4.720702616393819E-19
   2.729273731366493E-19
    </PP_CHI.2>
  </PP_PSWFC>
  <PP_RHOATOM size="1135">
   2.868588123251561E-09   2.941206776464502E-09   3.015663779591648E-09
   3.092005670680377E-09   3.170280165894231E-09   3.250536189337057E-09
   3.332823903632162E-09   3.417194741275572E-09   3.503701436782997E-09
   3.592398059650645E-09   3.683340048150357E-09   3.776584243980351E-09
   3.872188927793104E-09   3.970213855622661E-09   4.070720296234086E-09
   4.173771069418401E-09   4.279430585257002E-09   4.387764884380038E-09
   4.498841679243919E-09   4.612730396453843E-09   4.729502220157588E-09
   4.849230136537960E-09   4.971988979431478E-09   5.097855477101974E-09
   5.226908300198200E-09   5.359228110925526E-09   5.494897613462431E-09
   5.634001605653265E-09   5.776627032009640E-09   5.922863038053576E-09
   6.072801026036279E-09   6.226534712067519E-09   6.384160184691202E-09
   6.545775964943809E-09   6.711483067933234E-09   6.881385065976431E-09
   7.055588153335480E-09   7.234201212592383E-09   7.417335882704190E-09
   7.605106628780977E-09   7.797630813630134E-09   7.995028771111937E-09
   8.197423881352047E-09   8.404942647858076E-09   8.617714776588347E-09
   8.835873257022185E-09   9.059554445282717E-09   9.288898149363739E-09
   9.524047716514199E-09   9.765150122834863E-09   1.001235606514302E-08
   1.026582005516284E-08   1.052570051610013E-08   1.079215988166188E-08
   1.106536469758257E-08   1.134548572572054E-08   1.163269805078951E-08
   1.192718118979229E-08   1.222911920422443E-08   1.253870081511870E-08
   1.285611952100157E-08   1.318157371883606E-08   1.351526682802609E-08
   1.385740741756008E-08   1.420820933637326E-08   1.456789184700990E-08
   1.493667976266946E-08   1.531480358772190E-08   1.570249966178026E-08
   1.610001030742042E-08   1.650758398164022E-08   1.692547543115312E-08
   1.735394585161281E-08   1.779326305086873E-08   1.824370161635460E-08
   1.870554308671396E-08   1.917907612777080E-08   1.966459671295476E-08
   2.016240830829386E-08   2.067282206209029E-08   2.119615699939772E-08
   2.173274022142212E-08   2.228290710997012E-08   2.284700153707315E-08
   2.342537607991835E-08   2.401839224122004E-08   2.462642067517043E-08
   2.524984141910976E-08   2.588904413106166E-08   2.654442833328151E-08
   2.721640366197011E-08   2.790539012330905E-08   2.861181835597754E-08
   2.933612990031494E-08   3.007877747429715E-08   3.084022525649904E-08
   3.162094917622058E-08   3.242143721095716E-08   3.324218969140040E-08
   3.408371961416048E-08   3.494655296240436E-08   3.583122903461132E-08
   3.673830078165114E-08   3.766833515239504E-08   3.862191344807618E-08
   3.959963168562023E-08   4.060210097017416E-08   4.162994787706524E-08
   4.268381484342969E-08   4.376436056975511E-08   4.487226043158810E-08
   4.600820690166407E-08   4.717290998272349E-08   4.836709765128470E-08
   4.959151631265109E-08   5.084693126743611E-08   5.213412718989928E-08
   5.345390861839032E-08   5.480710045820966E-08   5.619454849719840E-08
   5.761711993438023E-08   5.907570392198640E-08   6.057121212120148E-08
   6.210457927197840E-08   6.367676377727782E-08   6.528874830209747E-08
   6.694154038766603E-08   6.863617308118553E-08   7.037370558151491E-08
   7.215522390120024E-08   7.398184154526232E-08   7.585470020716930E-08
   7.777497048242726E-08   7.974385260023500E-08   8.176257717366096E-08
   8.383240596881058E-08   8.595463269346461E-08   8.813058380568249E-08
   9.036161934287487E-08   9.264913377186452E-08   9.499455686046514E-08
   9.739935457112544E-08   9.986502997719487E-08   1.023931242023847E-07
   1.049852173840113E-07   1.076429296606238E-07   1.103679221846326E-07
   1.131618981605745E-07   1.160266039096576E-07   1.189638299612594E-07
   1.219754121720516E-07   1.250632328734583E-07   1.282292220481604E-07
   1.314753585363827E-07   1.348036712727196E-07   1.382162405542676E-07
   1.417151993408633E-07   1.453027345882342E-07   1.489810886148988E-07
   1.527525605036705E-07   1.566195075386363E-07   1.605843466785165E-07
   1.646495560673195E-07   1.688176765832374E-07   1.730913134267558E-07
   1.774731377489575E-07   1.819658883210567E-07   1.865723732461873E-07
   1.912954717145292E-07   1.961381358028653E-07   2.011033923196884E-07
   2.061943446970237E-07   2.114141749301343E-07   2.167661455663335E-07
   2.222536017441436E-07   2.278799732840682E-07   2.336487768323031E-07
   2.395636180586998E-07   2.456281939103806E-07   2.518462949223971E-07
   2.582218075868794E-07   2.647587167821667E-07   2.714611082634197E-07
   2.783331712162892E-07   2.853792008752237E-07   2.926036012080580E-07
   3.000108876685654E-07   3.076056900186804E-07   3.153927552221681E-07
   3.233769504115482E-07   3.315632659301096E-07   3.399568184509537E-07
   3.485628541749690E-07   3.573867521097764E-07   3.664340274316718E-07
   3.757103349326688E-07   3.852214725548107E-07   3.949733850139362E-07
   4.049721675151861E-07   4.152240695625648E-07   4.257354988649210E-07
   4.365130253408284E-07   4.475633852248225E-07   4.588934852775937E-07
   4.705104071027556E-07   4.824214115728749E-07   4.946339433675595E-07
   5.071556356264020E-07   5.199943147197160E-07   5.331580051400422E-07
   5.466549345174546E-07   5.604935387618501E-07   5.746824673353792E-07
   5.892305886583545E-07   6.041469956520033E-07   6.194410114215061E-07
   6.351221950829197E-07   6.512003477375669E-07   6.676855185976792E-07
   6.845880112670923E-07   7.019183901809122E-07   7.196874872082136E-07
   7.379064084218426E-07   7.565865410395979E-07   7.757395605411194E-07
   7.953774379648977E-07   8.155124473900280E-07   8.361571736073062E-07
   8.573245199845277E-07   8.790277165308718E-07   9.012803281653930E-07
   9.240962631948475E-07   9.474897820060644E-07   9.714755059783757E-07
   9.960684266216317E-07   1.021283914945487E-06   1.047137731065898E-06
   1.073646034054721E-06   1.100825392038653E-06   1.128692792553798E-06
   1.157265653162288E-06   1.186561832337671E-06   1.216599640625794E-06
   1.247397852088183E-06   1.278975716035090E-06   1.311352969055493E-06
   1.344549847351600E-06   1.378587099385546E-06   1.413485998846186E-06
   1.449268357944096E-06   1.485956541043059E-06   1.523573478636590E-06
   1.562142681678196E-06   1.601688256274349E-06   1.642234918749336E-06
   1.683808011091389E-06   1.726433516789782E-06   1.770138077072714E-06
   1.814949007556207E-06   1.860894315314365E-06   1.908002716381655E-06
   1.956303653698187E-06   2.005827315509122E-06   2.056604654229793E-06
   2.108667405788260E-06   2.162048109457376E-06   2.216780128188808E-06
   2.272897669461635E-06   2.330435806658605E-06   2.389430500983378E-06
   2.449918623932420E-06   2.511937980335646E-06   2.575527331980097E-06
   2.640726421831510E-06   2.707575998868849E-06   2.776117843547277E-06
   2.846394793905567E-06   2.918450772334128E-06   2.992330813020467E-06
   3.068081090089161E-06   3.145748946453898E-06   3.225382923399674E-06
   3.307032790913545E-06   3.390749578782855E-06   3.476585608480454E-06
   3.564594525856669E-06   3.654831334658584E-06   3.747352430897419E-06
   3.842215638085558E-06   3.939480243365151E-06   4.039207034550876E-06
   4.141458338110003E-06   4.246298058103362E-06   4.353791716111669E-06
   4.464006492171996E-06   4.577011266749921E-06   4.692876663773738E-06
   4.811675094757350E-06   4.933480804039465E-06   5.058369915167400E-06
   5.186420478454254E-06   5.317712519739329E-06   5.452328090382005E-06
   5.590351318520436E-06   5.731868461626917E-06   5.876967960392761E-06
   6.025740493976300E-06   6.178279036648396E-06   6.334678915870881E-06
   6.495037871844118E-06   6.659456118560711E-06   6.828036406403612E-06
   7.000884086327484E-06   7.178107175663448E-06   7.359816425588235E-06
   7.546125390299615E-06   7.737150497941556E-06   7.933011123322974E-06
   8.133829662475663E-06   8.339731609097674E-06   8.550845632929887E-06
   8.767303660114587E-06   8.989240955586108E-06   9.216796207544878E-06
   9.450111614067429E-06   9.689332971906488E-06   9.934609767536136E-06
   1.018609527049912E-05   1.044394662911421E-05   1.070832496860324E-05
   1.097939549169893E-05   1.125732758179599E-05   1.154229490871023E-05
   1.183447553711067E-05   1.213405203769280E-05   1.244121160116207E-05
   1.275614615509806E-05   1.307905248377272E-05   1.341013235099674E-05
   1.374959262607044E-05   1.409764541291818E-05   1.445450818248529E-05
   1.482040390848129E-05   1.519556120655279E-05   1.558021447697294E-05
   1.597460405093622E-05   1.637897634054904E-05   1.679358399260985E-05
   1.721868604627399E-05   1.765454809470122E-05   1.810144245078662E-05
   1.855964831707705E-05   1.902945195997956E-05   1.951114688836918E-05
   2.000503403670747E-05   2.051142195278472E-05   2.103062699020306E-05
   2.156297350571961E-05   2.210879406157163E-05   2.266842963290946E-05
   2.324222982046634E-05   2.383055306859552E-05   2.443376688881133E-05
   2.505224808897167E-05   2.568638300824392E-05   2.633656775800079E-05
   2.700320846879326E-05   2.768672154355558E-05   2.838753391719762E-05
   2.910608332274542E-05   2.984281856419528E-05   3.059819979624854E-05
   3.137269881110159E-05   3.216679933246715E-05   3.298099731700907E-05
   3.381580126337674E-05   3.467173252902870E-05   3.554932565504356E-05
   3.644912869911568E-05   3.737170357694292E-05   3.831762641221630E-05
   3.928748789542712E-05   4.028189365171281E-05   4.130146461796808E-05
   4.234683742945325E-05   4.341866481613783E-05   4.451761600902364E-05
   4.564437715669567E-05   4.679965175235917E-05   4.798416107162305E-05
   4.919864462129956E-05   5.044386059949591E-05   5.172058636727902E-05
   5.302961893220363E-05   5.437177544399988E-05   5.574789370272363E-05
   5.715883267968158E-05   5.860547305144814E-05   6.008871774730314E-05
   6.160949251042299E-05   6.316874647316916E-05   6.476745274682504E-05
   6.640660902614050E-05   6.808723820905371E-05   6.981038903196743E-05
   7.157713672096659E-05   7.338858365937442E-05   7.524586007205091E-05
   7.715012472685194E-05   7.910256565367425E-05   8.110440088152229E-05
   8.315687919404449E-05   8.526128090399564E-05   8.741891864709598E-05
   8.963113819576646E-05   9.189931929323155E-05   9.422487650849442E-05
   9.660926011269878E-05   9.905395697740783E-05   1.015604914953396E-04
   1.041304265241135E-04   1.067653643535758E-04   1.094669476972830E-04
   1.122368607087399E-04   1.150768300230007E-04   1.179886258242570E-04
   1.209740629400500E-04   1.240350019627602E-04   1.271733503990454E-04
   1.303910638479106E-04   1.336901472081093E-04   1.370726559155981E-04
   1.405406972117728E-04   1.440964314432433E-04   1.477420733939131E-04
   1.514798936501515E-04   1.553122199998655E-04   1.592414388662925E-04
   1.632699967773613E-04   1.674004018714805E-04   1.716352254406412E-04
   1.759771035117333E-04   1.804287384670014E-04   1.849929007045868E-04
   1.896724303401207E-04   1.944702389503563E-04   1.993893113598561E-04
   2.044327074717618E-04   2.096035641437085E-04   2.149050971099665E-04
   2.203406029509092E-04   2.259134611109470E-04   2.316271359660732E-04
   2.374851789422094E-04   2.434912306855543E-04   2.496490232861716E-04
   2.559623825560781E-04   2.624352303631135E-04   2.690715870219187E-04
   2.758755737433614E-04   2.828514151437772E-04   2.900034418154430E-04
   2.973360929596981E-04   3.048539190841912E-04   3.125615847657384E-04
   3.204638714803149E-04   3.285656805017496E-04   3.368720358706923E-04
   3.453880874354912E-04   3.541191139666323E-04   3.630705263464168E-04
   3.722478708356126E-04   3.816568324188239E-04   3.913032382303783E-04
   4.011930610625539E-04   4.113324229580038E-04   4.217275988882821E-04
   4.323850205203923E-04   4.433112800733414E-04   4.545131342666951E-04
   4.659975083631823E-04   4.777715003074269E-04   4.898423849629204E-04
   5.022176184494006E-04   5.149048425828185E-04   5.279118894201295E-04
   5.412467859111793E-04   5.549177586599785E-04   5.689332387977299E-04
   5.833018669699721E-04   5.980324984402708E-04   6.131342083129144E-04
   6.286162968770942E-04   6.444882950751250E-04   6.607599700972512E-04
   6.774413311056658E-04   6.945426350903552E-04   7.120743928594655E-04
   7.300473751668968E-04   7.484726189798604E-04   7.673614338891797E-04
   7.867254086651446E-04   8.065764179617474E-04   8.269266291721788E-04
   8.477885094384733E-04   8.691748328182191E-04   8.910986876112949E-04
   9.135734838495780E-04   9.366129609526353E-04   9.602311955523963E-04
   9.844426094898228E-04   1.009261977986645E-03   1.034704437995169E-03
   1.060785496729241E-03   1.087521040379435E-03   1.114927343015506E-03
   1.143021075679199E-03   1.171819315670426E-03   1.201339556029904E-03
   1.231599715221250E-03   1.262618147015555E-03   1.294413650581429E-03
   1.327005480783436E-03   1.360413358691889E-03   1.394657482306835E-03
   1.429758537499061E-03   1.465737709170920E-03   1.502616692639613E-03
   1.540417705245631E-03   1.579163498188848E-03   1.618877368594732E-03
   1.659583171813068E-03   1.701305333951359E-03   1.744068864645104E-03
   1.787899370066893E-03   1.832823066176172E-03   1.878866792211385E-03
   1.926058024425931E-03   1.974424890069347E-03   2.023996181614786E-03
   2.074801371233647E-03   2.126870625518134E-03   2.180234820452013E-03
   2.234925556629798E-03   2.290975174724169E-03   2.348416771201097E-03
   2.407284214281962E-03   2.467612160151374E-03   2.529436069409193E-03
   2.592792223764752E-03   2.657717742970829E-03   2.724250601994537E-03
   2.792429648421654E-03   2.862294620090543E-03   2.933886162951093E-03
   3.007245849143648E-03   3.082416195292164E-03   3.159440681005081E-03
   3.238363767576939E-03   3.319230916882692E-03   3.402088610456096E-03
   3.486984368742526E-03   3.573966770515825E-03   3.663085472447650E-03
   3.754391228817025E-03   3.847935911346407E-03   3.943772529149808E-03
   4.041955248776898E-03   4.142539414336325E-03   4.245581567679515E-03
   4.351139468625382E-03   4.459272115204577E-03   4.570039763900453E-03
   4.683503949862279E-03   4.799727507064743E-03   4.918774588385462E-03
   5.040710685571040E-03   5.165602649059509E-03   5.293518707625537E-03
   5.424528487812203E-03   5.558703033110954E-03   5.696114822849167E-03
   5.836837790741705E-03   5.980947343061018E-03   6.128520376376796E-03
   6.279635294813833E-03   6.434372026773555E-03   6.592812041061422E-03
   6.755038362359599E-03   6.921135585980087E-03   7.091189891830692E-03
   7.265289057522137E-03   7.443522470540594E-03   7.625981139406312E-03
   7.812757703734342E-03   8.003946443109393E-03   8.199643284682019E-03
   8.399945809388640E-03   8.604953256693320E-03   8.814766527743665E-03
   9.029488186828357E-03   9.249222461018161E-03   9.474075237866517E-03
   9.704154061040360E-03   9.939568123745423E-03   1.018042825980431E-02
   1.042684693223891E-02   1.067893821920249E-02   1.093681779709990E-02
   1.120060292072720E-02   1.147041240025498E-02   1.174636657487245E-02
   1.202858728290145E-02   1.231719782818266E-02   1.261232294252745E-02
   1.291408874402173E-02   1.322262269095975E-02   1.353805353117743E-02
   1.386051124654670E-02   1.419012699238423E-02   1.452703303151893E-02
   1.487136266275482E-02   1.522325014345651E-02   1.558283060597759E-02
   1.595023996764231E-02   1.632561483398367E-02   1.670909239493314E-02
   1.710081031364816E-02   1.750090660765779E-02   1.790951952199795E-02
   1.832678739400222E-02   1.875284850940630E-02   1.918784094941949E-02
   1.963190242841168E-02   2.008517012185777E-02   2.054778048418050E-02
   2.101986905612777E-02   2.150157026132000E-02   2.199301719160270E-02
   2.249434138083943E-02   2.300567256678348E-02   2.352713844067143E-02
   2.405886438418528E-02   2.460097319344131E-02   2.515358478967074E-02
   2.571681591627270E-02   2.629077982193481E-02   2.687558592953376E-02
   2.747133949055416E-02   2.807814122478411E-02   2.869608694508055E-02
   2.932526716702908E-02   2.996576670335971E-02   3.061766424302839E-02
   3.128103191491841E-02   3.195593483617317E-02   3.264243064523524E-02
   3.334056901972978E-02   3.405039117941380E-02   3.477192937448996E-02
   3.550520635968022E-02   3.625023485455799E-02   3.700701699074486E-02
   3.777554374670639E-02   3.855579437101135E-02   3.934773579506838E-02
   4.015132203651339E-02   4.096649359459175E-02   4.179317683907229E-02
   4.263128339443052E-02   4.348070952126042E-02   4.434133549711498E-02
   4.521302499922687E-02   4.609562449184500E-02   4.698896262121389E-02
   4.789284962154579E-02   4.880707673567730E-02   4.973141565446568E-02
   5.066561797937821E-02   5.160941471313728E-02   5.256251578373532E-02
   5.352460960760593E-02   5.449536269823584E-02   5.547441932704394E-02
   5.646140124390789E-02   5.745590746532477E-02   5.845751413881397E-02
   5.946577449283738E-02   6.048021888220629E-02   6.150035493967434E-02
   6.252566784518100E-02   6.355562072500703E-02   6.458965519393539E-02
   6.562719205437305E-02   6.666763216728747E-02   6.771035751073069E-02
   6.875473244268357E-02   6.980010518592153E-02   7.084580955361350E-02
   7.189116693536908E-02   7.293548856449261E-02   7.397807808823618E-02
   7.501823446388298E-02   7.605525520453310E-02   7.708843999947973E-02
   7.811709473506789E-02   7.914053594289247E-02   8.015809570310593E-02
   8.116912703147332E-02   8.217300977958965E-02   8.316915707837216E-02
   8.415702235551818E-02   8.513610695807171E-02   8.610596841153177E-02
   8.706622934705398E-02   8.801658712820078E-02   8.895682420836190E-02
   8.988681924936366E-02   9.080655903087297E-02   9.171615117894359E-02
   9.261583774040692E-02   9.350600962773435E-02   9.438722195643041E-02
   9.526021029394315E-02   9.612590783539071E-02   9.698546351709472E-02
   9.784026107390102E-02   9.869193904047932E-02   9.954241169019563E-02
   1.003938908976528E-01   1.012489089025313E-01   1.021103419428656E-01
   1.029814347153026E-01   1.038658256081232E-01   1.047675726398058E-01
   1.056911800215948E-01   1.066416252468799E-01   1.076243865930793E-01
   1.086454709031631E-01   1.097114414938599E-01   1.108294460159797E-01
   1.120072440690731E-01   1.132532343479272E-01   1.145764810720836E-01
   1.159867394217858E-01   1.174944796745378E-01   1.191109097058936E-01
   1.208479954863273E-01   1.227184791732745E-01   1.247358943637870E-01
   1.269145780391387E-01   1.292696786983359E-01   1.318171601432669E-01
   1.345738003446607E-01   1.375571847855412E-01   1.407856936481788E-01
   1.442784821822653E-01   1.480554535669505E-01   1.521372235584661E-01
   1.565450761991435E-01   1.613009098539151E-01   1.664271728380375E-01
   1.719467879060382E-01   1.778830648882749E-01   1.842596007893989E-01
   1.911001667041781E-01   1.984285809621527E-01   2.062685679853032E-01
   2.146436024341625E-01   2.235767383293873E-01   2.330904229697954E-01
   2.432062956258294E-01   2.539449711714791E-01   2.653258090292769E-01
   2.773666680436255E-01   2.900836481688799E-01   3.034908201608609E-01
   3.175999447946680E-01   3.324201834976285E-01   3.479578026832628E-01
   3.642158744992032E-01   3.811939771564199E-01   3.988878984860020E-01
   4.172893468684430E-01   4.363856741931360E-01   4.561596160256946E-01
   4.765890546782420E-01   4.976468113834730E-01   5.193004742561049E-01
   5.415122691547067E-01   5.642389809400571E-01   5.874319329555608E-01
   6.110370327498466E-01   6.349948921410999E-01   6.592410296777456E-01
   6.837061633163027E-01   7.083166007020393E-01   7.329947337700454E-01
   7.576596434515065E-01   7.822278190416182E-01   8.066139952322564E-01
   8.307321079056207E-01   8.544963675011715E-01   8.778224460872085E-01
   9.006287711778744E-01   9.228379158323855E-01   9.443780706622739E-01
   9.651845790750719E-01   9.852015124350118E-01   1.004383256877481E+00
   1.022696078350607E+00   1.040119627173958E+00   1.056648338127856E+00
   1.072292676972522E+00   1.087067638516845E+00   1.100950545610756E+00
   1.113909670077765E+00   1.125915549661096E+00   1.136941074630377E+00
   1.146961568300511E+00   1.155954862052134E+00   1.163901364869776E+00
   1.170784127012432E+00   1.176588897172850E+00   1.181304172337916E+00
   1.184921239508465E+00   1.187434208449979E+00   1.188840034692109E+00
   1.189138532109473E+00   1.188332374526724E+00   1.186427085921506E+00
   1.183431018938103E+00   1.179355321563256E+00   1.174213891950615E+00
   1.168023321509468E+00   1.160802826298031E+00   1.152574165849586E+00
   1.143361555976917E+00   1.133191567128415E+00   1.122093014146959E+00
   1.110096837232435E+00   1.097235974678235E+00   1.083545228139370E+00
   1.069061121222173E+00   1.053821752209888E+00   1.037866641755313E+00
   1.021236576381021E+00   1.003973448630886E+00   9.861200947139871E-01
   9.677201304742160E-01   9.488177865069602E-01   9.294577432283651E-01
   9.096849666839313E-01   8.895445458617046E-01   8.690815322521650E-01
   8.483407823720535E-01   8.273668039435651E-01   8.062036063936899E-01
   7.848945563111427E-01   7.634822384715972E-01   7.420083230115272E-01
   7.205134393044910E-01   6.990370570595759E-01   6.776173751337156E-01
   6.562912185135021E-01   6.350939438836983E-01   6.140593541598479E-01
   5.932196223171203E-01   5.726052247976101E-01   5.522448847233984E-01
   5.321655250826963E-01   5.123922319911746E-01   4.929482280608701E-01
   4.738548558353118E-01   4.551315711727653E-01   4.367959463811262E-01
   4.188636828291664E-01   4.013486326814385E-01   3.842628293296182E-01
   3.676165260231125E-01   3.514182421380118E-01   3.356748164672111E-01
   3.203914668671821E-01   3.055718555588425E-01   2.912181593524542E-01
   2.773311440497600E-01   2.639102422700424E-01   2.509536339508601E-01
   2.384583287879638E-01   2.264202499016665E-01   2.148343180477785E-01
   2.036945357290015E-01   1.929940706062986E-01   1.827253376579743E-01
   1.728800795858158E-01   1.634494450215416E-01   1.544240641418161E-01
   1.457941213552949E-01   1.375494247796058E-01   1.296794722791098E-01
   1.221735138850596E-01   1.150206104678388E-01   1.082096885759294E-01
   1.017295913978086E-01   9.556912584091026E-02   8.971710575602376E-02
   8.416239136597876E-02   7.889392498425275E-02   7.390076313232205E-02
   6.917210518428443E-02   6.469731868371958E-02   6.046596149107962E-02
   5.646780093036547E-02   5.269283011164158E-02   4.913128161129456E-02
   4.577363869508948E-02   4.261064427019744E-02   3.963330775168854E-02
   3.683291002667863E-02   3.420100669556445E-02   3.172942976475190E-02
   2.941028795912094E-02   2.723596581533309E-02   2.519912170910546E-02
   2.329268496088356E-02   2.150985215507747E-02   1.984408279830014E-02
   1.828909443200091E-02   1.683885730463772E-02   1.548758869820166E-02
   1.422974699363999E-02   1.306002554960643E-02   1.197334645912995E-02
   1.096485423937013E-02   1.002990950067565E-02   9.164082632785116E-03
   8.363147538296461E-03   7.623075436524151E-03   6.940028754611462E-03
   6.310355117293192E-03   5.730581442023605E-03   5.197408142283577E-03
   4.707703438740562E-03   4.258497775515502E-03   3.846978337064053E-03
   3.470483660046850E-03   3.126498333978080E-03   2.812647784332625E-03
   2.526693132085003E-03   2.266526124273866E-03   2.030164131060993E-03
   1.815745205813125E-03   1.621523205913860E-03   1.445862973251002E-03
   1.287235574569429E-03   1.144213603084695E-03   1.015466543879090E-03
   8.997562066190610E-04   7.959322300158847E-04   7.029276631833694E-04
   6.197546296162470E-04   5.455000799153592E-04   4.793216396212595E-04
   4.204435585906604E-04   3.681527682688706E-04   3.217950529873867E-04
   2.807713410630955E-04   2.445341210098157E-04   2.125839876110727E-04
   1.844663219625758E-04   1.597681088916233E-04   1.381148944158737E-04
   1.191678851324926E-04   1.026211906462833E-04   8.819920936668377E-05
   7.565415724163997E-05   6.476373826298799E-05   5.532895488315964E-05
   4.717205583515956E-05   4.013461825358924E-05   3.407576045917411E-05
   2.887048129637579E-05   2.440812150541878E-05   2.059094226725252E-05
   1.733281578223791E-05   1.455802252933186E-05   1.220014969999117E-05
   1.020108520405510E-05   8.510101610310626E-06   7.083024388149979E-06
   5.881478875443219E-06   4.872210493481218E-06   4.026472861772659E-06
   3.319478628285893E-06   2.729908019435457E-06   2.239470323976264E-06
   1.832513751451185E-06   1.495679344676432E-06   1.217594872984955E-06
   9.886048849627235E-07   8.005333529541512E-07   6.464755937120643E-07
   5.206163976276763E-07   4.180781004497925E-07   3.348259665165621E-07
   2.674207553656898E-07   2.129953510658787E-07   1.691721121635001E-07
   1.339847871618229E-07   1.058119115239366E-07   8.332016180024561E-08
   6.541631920634526E-08   5.120665478758269E-08   3.996269254581108E-08
   3.109243661957920E-08   2.411626484022323E-08   1.864679474923850E-08
   1.437212047199282E-08   1.104190062521181E-08   8.455849657430690E-09
   6.454248539310191E-09   4.910146379289417E-09   3.722973126070361E-09
   2.813325769296316E-09   2.118727048359763E-09   1.590187259577872E-09
   1.189426895720100E-09   8.866410906156198E-10   6.587066583108150E-10
   4.877493474840672E-10   3.600031698935284E-10   2.649056573055127E-10
   1.943829665927428E-10   1.422871635183193E-10   1.039550150960244E-10
   7.586342113973257E-11   5.536140316118614E-11   4.023608648527927E-11
   2.912298288947495E-11   2.099155809230806E-11   1.506673432072657E-11
   1.076802042044632E-11   7.662513558029182E-12   5.428768876551552E-12
   3.829146022456748E-12   2.688737782654790E-12   1.879386396756335E-12
   1.307614318200574E-12   9.055527501961055E-13   6.241551526204616E-13
   4.281441225613969E-13   2.922668832396714E-13   1.985338986242566E-13
   1.341924514524766E-13   9.024692850293684E-14   6.038372943994931E-14
   4.019411589605244E-14   2.661531486587461E-14   1.753066924529424E-14
   1.148507836544147E-14   7.483563783831083E-15   4.849445552270290E-15
   3.125032545969711E-15   2.002466089699192E-15   1.275830311022034E-15
   8.081767354468737E-16   5.089482514385911E-16   3.186122978576152E-16
   1.982624362467291E-16   1.226236669895468E-16   7.537557976625266E-17
   4.604427800073082E-17   2.794956228679547E-17   1.685753124403133E-17
   1.010176816742556E-17   6.013809764343474E-18   3.556434348705553E-18
   2.089085593042571E-18   1.218812919147045E-18   7.061871772618836E-19
   4.063185852684269E-19   2.321342770141840E-19   1.316736115243195E-19
   7.414908348168201E-20   4.144962224800334E-20   2.299867424323083E-20
   1.266518804695038E-20   6.921588358643210E-21   3.753559699171191E-21
   2.019677138300795E-21   1.078148860999575E-21   5.709396727448625E-22
   2.998972217017308E-22   1.562359065453324E-22   8.071799257755284E-23
   4.135188226677658E-23   2.100435775086562E-23   1.057708293477346E-23
   5.279799001143524E-24   2.612256686728712E-24   1.280892524372383E-24
   6.223844099496661E-25   2.996429522635756E-25   1.429217501309049E-25
   6.752901213706167E-26   3.160301776686358E-26   1.464739616157995E-26
   6.722533625127999E-27   3.054868529253543E-27   1.374309919533995E-27
   6.120041966339807E-28   2.697403629253488E-28   1.176529576440602E-28
   5.077711045874448E-29   2.168120766816167E-29   9.157790651413061E-30
   3.825871481476431E-30   1.580674291446300E-30   6.457522351786997E-31
   2.608190848082522E-31   1.041358741405425E-31   4.109469552514489E-32
   1.602623925736576E-32   6.175515043569600E-33   2.350958114340239E-33
   8.840571894480618E-34   3.283313646105390E-34   1.204128575793260E-34
   4.360064525409612E-35   1.558485438746510E-35   5.498341373241513E-36
   1.914292168886213E-36   6.575970706893897E-37   2.228503319242745E-37
   7.448935100727182E-38
  </PP_RHOATOM>
</UPF>
